<?xml version="1.0"?>
<VTKFile type="UnstructuredGrid" version="0.1">
<UnstructuredGrid>
<Piece NumberOfPoints="      1156" NumberOfCells="      1024">
<Points>
<DataArray type="Float64"                                    Name="coordinates"                                                      NumberOfComponents=" 3" format="ascii">
              0.133000000               0.000000000               0.000000000               0.155937500               0.000000000               0.000000000               0.178875000               0.000000000               0.000000000               0.201812500               0.000000000               0.000000000               0.224750000               0.000000000               0.000000000               0.247687500               0.000000000               0.000000000               0.270625000               0.000000000               0.000000000               0.293562500               0.000000000               0.000000000               0.316500000               0.000000000               0.000000000               0.339437500               0.000000000               0.000000000               0.362375000               0.000000000               0.000000000               0.385312500               0.000000000               0.000000000               0.408250000               0.000000000               0.000000000               0.431187500               0.000000000               0.000000000               0.454125000               0.000000000               0.000000000               0.477062500               0.000000000               0.000000000               0.500000000               0.000000000               0.000000000               0.132359569               0.013036280               0.000000000               0.155337096               0.016127762               0.000000000               0.178314623               0.019219245               0.000000000               0.201292150               0.022310727               0.000000000               0.224269676               0.025402210               0.000000000               0.247247203               0.028493692               0.000000000               0.270224730               0.031585175               0.000000000               0.293202257               0.034676657               0.000000000               0.316179784               0.037768140               0.000000000               0.339157311               0.040859622               0.000000000               0.362134838               0.043951105               0.000000000               0.385112365               0.047042587               0.000000000               0.408089892               0.050134070               0.000000000               0.431067419               0.053225552               0.000000000               0.454044946               0.056317035               0.000000000               0.477022473               0.059408517               0.000000000               0.500000000               0.062500000               0.000000000               0.130444442               0.025947013               0.000000000               0.153541665               0.032137825               0.000000000               0.176638887               0.038328636               0.000000000               0.199736109               0.044519448               0.000000000               0.222833332               0.050710260               0.000000000               0.245930554               0.056901071               0.000000000               0.269027776               0.063091883               0.000000000               0.292124999               0.069282695               0.000000000               0.315222221               0.075473506               0.000000000               0.338319444               0.081664318               0.000000000               0.361416666               0.087855130               0.000000000               0.384513888               0.094045942               0.000000000               0.407611111               0.100236753               0.000000000               0.430708333               0.106427565               0.000000000               0.453805555               0.112618377               0.000000000               0.476902778               0.118809188               0.000000000               0.500000000               0.125000000               0.000000000               0.127273065               0.038607862               0.000000000               0.150568498               0.047913621               0.000000000               0.173863932               0.057219379               0.000000000               0.197159365               0.066525138               0.000000000               0.220454798               0.075830897               0.000000000               0.243750232               0.085136655               0.000000000               0.267045665               0.094442414               0.000000000               0.290341099               0.103748172               0.000000000               0.313636532               0.113053931               0.000000000               0.336931966               0.122359690               0.000000000               0.360227399               0.131665448               0.000000000               0.383522833               0.140971207               0.000000000               0.406818266               0.150276966               0.000000000               0.430113700               0.159582724               0.000000000               0.453409133               0.168888483               0.000000000               0.476704567               0.178194241               0.000000000               0.500000000               0.187500000               0.000000000               0.122875978               0.050896897               0.000000000               0.146446229               0.063340840               0.000000000               0.170016481               0.075784784               0.000000000               0.193586732               0.088228728               0.000000000               0.217156983               0.100672672               0.000000000               0.240727235               0.113116616               0.000000000               0.264297486               0.125560560               0.000000000               0.287867738               0.138004504               0.000000000               0.311437989               0.150448448               0.000000000               0.335008240               0.162892392               0.000000000               0.358578492               0.175336336               0.000000000               0.382148743               0.187780280               0.000000000               0.405718994               0.200224224               0.000000000               0.429289246               0.212668168               0.000000000               0.452859497               0.225112112               0.000000000               0.476429749               0.237556056               0.000000000               0.500000000               0.250000000               0.000000000               0.117295528               0.062695766               0.000000000               0.141214558               0.078308531               0.000000000               0.165133587               0.093921295               0.000000000               0.189052617               0.109534060               0.000000000               0.212971646               0.125146824               0.000000000               0.236890676               0.140759589               0.000000000               0.260809705               0.156372354               0.000000000               0.284728735               0.171985118               0.000000000               0.308647764               0.187597883               0.000000000               0.332566794               0.203210648               0.000000000               0.356485823               0.218823412               0.000000000               0.380404853               0.234436177               0.000000000               0.404323882               0.250048941               0.000000000               0.428242912               0.265661706               0.000000000               0.452161941               0.281274471               0.000000000               0.476080971               0.296887235               0.000000000               0.500000000               0.312500000               0.000000000               0.110585458               0.073890841               0.000000000               0.134923867               0.092710163               0.000000000               0.159262276               0.111529486               0.000000000               0.183600685               0.130348808               0.000000000               0.207939094               0.149168131               0.000000000               0.232277503               0.167987453               0.000000000               0.256615912               0.186806776               0.000000000               0.280954320               0.205626098               0.000000000               0.305292729               0.224445420               0.000000000               0.329631138               0.243264743               0.000000000               0.353969547               0.262084065               0.000000000               0.378307956               0.280903388               0.000000000               0.402646365               0.299722710               0.000000000               0.426984773               0.318542033               0.000000000               0.451323182               0.337361355               0.000000000               0.475661591               0.356180678               0.000000000               0.500000000               0.375000000               0.000000000               0.102810390               0.084374307               0.000000000               0.127634741               0.106444663               0.000000000               0.152459092               0.128515018               0.000000000               0.177283442               0.150585374               0.000000000               0.202107793               0.172655730               0.000000000               0.226932143               0.194726086               0.000000000               0.251756494               0.216796442               0.000000000               0.276580845               0.238866798               0.000000000               0.301405195               0.260937153               0.000000000               0.326229546               0.283007509               0.000000000               0.351053896               0.305077865               0.000000000               0.375878247               0.327148221               0.000000000               0.400702598               0.349218577               0.000000000               0.425526948               0.371288933               0.000000000               0.450351299               0.393359288               0.000000000               0.475175649               0.415429644               0.000000000               0.500000000               0.437500000               0.000000000               0.094045202               0.094045202               0.000000000               0.119417377               0.119417377               0.000000000               0.144789552               0.144789552               0.000000000               0.170161727               0.170161727               0.000000000               0.195533901               0.195533901               0.000000000               0.220906076               0.220906076               0.000000000               0.246278251               0.246278251               0.000000000               0.271650426               0.271650426               0.000000000               0.297022601               0.297022601               0.000000000               0.322394776               0.322394776               0.000000000               0.347766951               0.347766951               0.000000000               0.373139126               0.373139126               0.000000000               0.398511300               0.398511300               0.000000000               0.423883475               0.423883475               0.000000000               0.449255650               0.449255650               0.000000000               0.474627825               0.474627825               0.000000000               0.500000000               0.500000000               0.000000000               0.084374307               0.102810390               0.000000000               0.106444663               0.127634741               0.000000000               0.128515018               0.152459092               0.000000000               0.150585374               0.177283442               0.000000000               0.172655730               0.202107793               0.000000000               0.194726086               0.226932143               0.000000000               0.216796442               0.251756494               0.000000000               0.238866798               0.276580845               0.000000000               0.260937153               0.301405195               0.000000000               0.283007509               0.326229546               0.000000000               0.305077865               0.351053896               0.000000000               0.327148221               0.375878247               0.000000000               0.349218577               0.400702598               0.000000000               0.371288933               0.425526948               0.000000000               0.393359288               0.450351299               0.000000000               0.415429644               0.475175649               0.000000000               0.437500000               0.500000000               0.000000000               0.073890841               0.110585458               0.000000000               0.092710163               0.134923867               0.000000000               0.111529486               0.159262276               0.000000000               0.130348808               0.183600685               0.000000000               0.149168131               0.207939094               0.000000000               0.167987453               0.232277503               0.000000000               0.186806776               0.256615912               0.000000000               0.205626098               0.280954320               0.000000000               0.224445420               0.305292729               0.000000000               0.243264743               0.329631138               0.000000000               0.262084065               0.353969547               0.000000000               0.280903388               0.378307956               0.000000000               0.299722710               0.402646365               0.000000000               0.318542033               0.426984773               0.000000000               0.337361355               0.451323182               0.000000000               0.356180678               0.475661591               0.000000000               0.375000000               0.500000000               0.000000000               0.062695766               0.117295528               0.000000000               0.078308531               0.141214558               0.000000000               0.093921295               0.165133587               0.000000000               0.109534060               0.189052617               0.000000000               0.125146824               0.212971646               0.000000000               0.140759589               0.236890676               0.000000000               0.156372354               0.260809705               0.000000000               0.171985118               0.284728735               0.000000000               0.187597883               0.308647764               0.000000000               0.203210648               0.332566794               0.000000000               0.218823412               0.356485823               0.000000000               0.234436177               0.380404853               0.000000000               0.250048941               0.404323882               0.000000000               0.265661706               0.428242912               0.000000000               0.281274471               0.452161941               0.000000000               0.296887235               0.476080971               0.000000000               0.312500000               0.500000000               0.000000000               0.050896897               0.122875978               0.000000000               0.063340840               0.146446229               0.000000000               0.075784784               0.170016481               0.000000000               0.088228728               0.193586732               0.000000000               0.100672672               0.217156983               0.000000000               0.113116616               0.240727235               0.000000000               0.125560560               0.264297486               0.000000000               0.138004504               0.287867738               0.000000000               0.150448448               0.311437989               0.000000000               0.162892392               0.335008240               0.000000000               0.175336336               0.358578492               0.000000000               0.187780280               0.382148743               0.000000000               0.200224224               0.405718994               0.000000000               0.212668168               0.429289246               0.000000000               0.225112112               0.452859497               0.000000000               0.237556056               0.476429749               0.000000000               0.250000000               0.500000000               0.000000000               0.038607862               0.127273065               0.000000000               0.047913621               0.150568498               0.000000000               0.057219379               0.173863932               0.000000000               0.066525138               0.197159365               0.000000000               0.075830897               0.220454798               0.000000000               0.085136655               0.243750232               0.000000000               0.094442414               0.267045665               0.000000000               0.103748172               0.290341099               0.000000000               0.113053931               0.313636532               0.000000000               0.122359690               0.336931966               0.000000000               0.131665448               0.360227399               0.000000000               0.140971207               0.383522833               0.000000000               0.150276966               0.406818266               0.000000000               0.159582724               0.430113700               0.000000000               0.168888483               0.453409133               0.000000000               0.178194241               0.476704567               0.000000000               0.187500000               0.500000000               0.000000000               0.025947013               0.130444442               0.000000000               0.032137825               0.153541665               0.000000000               0.038328636               0.176638887               0.000000000               0.044519448               0.199736109               0.000000000               0.050710260               0.222833332               0.000000000               0.056901071               0.245930554               0.000000000               0.063091883               0.269027776               0.000000000               0.069282695               0.292124999               0.000000000               0.075473506               0.315222221               0.000000000               0.081664318               0.338319444               0.000000000               0.087855130               0.361416666               0.000000000               0.094045942               0.384513888               0.000000000               0.100236753               0.407611111               0.000000000               0.106427565               0.430708333               0.000000000               0.112618377               0.453805555               0.000000000               0.118809188               0.476902778               0.000000000               0.125000000               0.500000000               0.000000000               0.013036280               0.132359569               0.000000000               0.016127762               0.155337096               0.000000000               0.019219245               0.178314623               0.000000000               0.022310727               0.201292150               0.000000000               0.025402210               0.224269676               0.000000000               0.028493692               0.247247203               0.000000000               0.031585175               0.270224730               0.000000000               0.034676657               0.293202257               0.000000000               0.037768140               0.316179784               0.000000000               0.040859622               0.339157311               0.000000000               0.043951105               0.362134838               0.000000000               0.047042587               0.385112365               0.000000000               0.050134070               0.408089892               0.000000000               0.053225552               0.431067419               0.000000000               0.056317035               0.454044946               0.000000000               0.059408517               0.477022473               0.000000000               0.062500000               0.500000000               0.000000000               0.000000000               0.133000000               0.000000000               0.000000000               0.155937500               0.000000000               0.000000000               0.178875000               0.000000000               0.000000000               0.201812500               0.000000000               0.000000000               0.224750000               0.000000000               0.000000000               0.247687500               0.000000000               0.000000000               0.270625000               0.000000000               0.000000000               0.293562500               0.000000000               0.000000000               0.316500000               0.000000000               0.000000000               0.339437500               0.000000000               0.000000000               0.362375000               0.000000000               0.000000000               0.385312500               0.000000000               0.000000000               0.408250000               0.000000000               0.000000000               0.431187500               0.000000000               0.000000000               0.454125000               0.000000000               0.000000000               0.477062500               0.000000000               0.000000000               0.500000000               0.000000000               0.133000000               0.000000000               0.000000000               0.155937500               0.000000000               0.000000000               0.178875000               0.000000000               0.000000000               0.201812500               0.000000000               0.000000000               0.224750000               0.000000000               0.000000000               0.247687500               0.000000000               0.000000000               0.270625000               0.000000000               0.000000000               0.293562500               0.000000000               0.000000000               0.316500000               0.000000000               0.000000000               0.339437500               0.000000000               0.000000000               0.362375000               0.000000000               0.000000000               0.385312500               0.000000000               0.000000000               0.408250000               0.000000000               0.000000000               0.431187500               0.000000000               0.000000000               0.454125000               0.000000000               0.000000000               0.477062500               0.000000000               0.000000000               0.500000000               0.000000000               0.000000000               0.132359569              -0.013036280               0.000000000               0.155337096              -0.016127762               0.000000000               0.178314623              -0.019219245               0.000000000               0.201292150              -0.022310727               0.000000000               0.224269676              -0.025402210               0.000000000               0.247247203              -0.028493692               0.000000000               0.270224730              -0.031585175               0.000000000               0.293202257              -0.034676657               0.000000000               0.316179784              -0.037768140               0.000000000               0.339157311              -0.040859622               0.000000000               0.362134838              -0.043951105               0.000000000               0.385112365              -0.047042587               0.000000000               0.408089892              -0.050134070               0.000000000               0.431067419              -0.053225552               0.000000000               0.454044946              -0.056317035               0.000000000               0.477022473              -0.059408517               0.000000000               0.500000000              -0.062500000               0.000000000               0.130444442              -0.025947013               0.000000000               0.153541665              -0.032137825               0.000000000               0.176638887              -0.038328636               0.000000000               0.199736109              -0.044519448               0.000000000               0.222833332              -0.050710260               0.000000000               0.245930554              -0.056901071               0.000000000               0.269027776              -0.063091883               0.000000000               0.292124999              -0.069282695               0.000000000               0.315222221              -0.075473506               0.000000000               0.338319444              -0.081664318               0.000000000               0.361416666              -0.087855130               0.000000000               0.384513888              -0.094045942               0.000000000               0.407611111              -0.100236753               0.000000000               0.430708333              -0.106427565               0.000000000               0.453805555              -0.112618377               0.000000000               0.476902778              -0.118809188               0.000000000               0.500000000              -0.125000000               0.000000000               0.127273065              -0.038607862               0.000000000               0.150568498              -0.047913621               0.000000000               0.173863932              -0.057219379               0.000000000               0.197159365              -0.066525138               0.000000000               0.220454798              -0.075830897               0.000000000               0.243750232              -0.085136655               0.000000000               0.267045665              -0.094442414               0.000000000               0.290341099              -0.103748172               0.000000000               0.313636532              -0.113053931               0.000000000               0.336931966              -0.122359690               0.000000000               0.360227399              -0.131665448               0.000000000               0.383522833              -0.140971207               0.000000000               0.406818266              -0.150276966               0.000000000               0.430113700              -0.159582724               0.000000000               0.453409133              -0.168888483               0.000000000               0.476704567              -0.178194241               0.000000000               0.500000000              -0.187500000               0.000000000               0.122875978              -0.050896897               0.000000000               0.146446229              -0.063340840               0.000000000               0.170016481              -0.075784784               0.000000000               0.193586732              -0.088228728               0.000000000               0.217156983              -0.100672672               0.000000000               0.240727235              -0.113116616               0.000000000               0.264297486              -0.125560560               0.000000000               0.287867738              -0.138004504               0.000000000               0.311437989              -0.150448448               0.000000000               0.335008240              -0.162892392               0.000000000               0.358578492              -0.175336336               0.000000000               0.382148743              -0.187780280               0.000000000               0.405718994              -0.200224224               0.000000000               0.429289246              -0.212668168               0.000000000               0.452859497              -0.225112112               0.000000000               0.476429749              -0.237556056               0.000000000               0.500000000              -0.250000000               0.000000000               0.117295528              -0.062695766               0.000000000               0.141214558              -0.078308531               0.000000000               0.165133587              -0.093921295               0.000000000               0.189052617              -0.109534060               0.000000000               0.212971646              -0.125146824               0.000000000               0.236890676              -0.140759589               0.000000000               0.260809705              -0.156372354               0.000000000               0.284728735              -0.171985118               0.000000000               0.308647764              -0.187597883               0.000000000               0.332566794              -0.203210648               0.000000000               0.356485823              -0.218823412               0.000000000               0.380404853              -0.234436177               0.000000000               0.404323882              -0.250048941               0.000000000               0.428242912              -0.265661706               0.000000000               0.452161941              -0.281274471               0.000000000               0.476080971              -0.296887235               0.000000000               0.500000000              -0.312500000               0.000000000               0.110585458              -0.073890841               0.000000000               0.134923867              -0.092710163               0.000000000               0.159262276              -0.111529486               0.000000000               0.183600685              -0.130348808               0.000000000               0.207939094              -0.149168131               0.000000000               0.232277503              -0.167987453               0.000000000               0.256615912              -0.186806776               0.000000000               0.280954320              -0.205626098               0.000000000               0.305292729              -0.224445420               0.000000000               0.329631138              -0.243264743               0.000000000               0.353969547              -0.262084065               0.000000000               0.378307956              -0.280903388               0.000000000               0.402646365              -0.299722710               0.000000000               0.426984773              -0.318542033               0.000000000               0.451323182              -0.337361355               0.000000000               0.475661591              -0.356180678               0.000000000               0.500000000              -0.375000000               0.000000000               0.102810390              -0.084374307               0.000000000               0.127634741              -0.106444663               0.000000000               0.152459092              -0.128515018               0.000000000               0.177283442              -0.150585374               0.000000000               0.202107793              -0.172655730               0.000000000               0.226932143              -0.194726086               0.000000000               0.251756494              -0.216796442               0.000000000               0.276580845              -0.238866798               0.000000000               0.301405195              -0.260937153               0.000000000               0.326229546              -0.283007509               0.000000000               0.351053896              -0.305077865               0.000000000               0.375878247              -0.327148221               0.000000000               0.400702598              -0.349218577               0.000000000               0.425526948              -0.371288933               0.000000000               0.450351299              -0.393359288               0.000000000               0.475175649              -0.415429644               0.000000000               0.500000000              -0.437500000               0.000000000               0.094045202              -0.094045202               0.000000000               0.119417377              -0.119417377               0.000000000               0.144789552              -0.144789552               0.000000000               0.170161727              -0.170161727               0.000000000               0.195533901              -0.195533901               0.000000000               0.220906076              -0.220906076               0.000000000               0.246278251              -0.246278251               0.000000000               0.271650426              -0.271650426               0.000000000               0.297022601              -0.297022601               0.000000000               0.322394776              -0.322394776               0.000000000               0.347766951              -0.347766951               0.000000000               0.373139126              -0.373139126               0.000000000               0.398511300              -0.398511300               0.000000000               0.423883475              -0.423883475               0.000000000               0.449255650              -0.449255650               0.000000000               0.474627825              -0.474627825               0.000000000               0.500000000              -0.500000000               0.000000000               0.084374307              -0.102810390               0.000000000               0.106444663              -0.127634741               0.000000000               0.128515018              -0.152459092               0.000000000               0.150585374              -0.177283442               0.000000000               0.172655730              -0.202107793               0.000000000               0.194726086              -0.226932143               0.000000000               0.216796442              -0.251756494               0.000000000               0.238866798              -0.276580845               0.000000000               0.260937153              -0.301405195               0.000000000               0.283007509              -0.326229546               0.000000000               0.305077865              -0.351053896               0.000000000               0.327148221              -0.375878247               0.000000000               0.349218577              -0.400702598               0.000000000               0.371288933              -0.425526948               0.000000000               0.393359288              -0.450351299               0.000000000               0.415429644              -0.475175649               0.000000000               0.437500000              -0.500000000               0.000000000               0.073890841              -0.110585458               0.000000000               0.092710163              -0.134923867               0.000000000               0.111529486              -0.159262276               0.000000000               0.130348808              -0.183600685               0.000000000               0.149168131              -0.207939094               0.000000000               0.167987453              -0.232277503               0.000000000               0.186806776              -0.256615912               0.000000000               0.205626098              -0.280954320               0.000000000               0.224445420              -0.305292729               0.000000000               0.243264743              -0.329631138               0.000000000               0.262084065              -0.353969547               0.000000000               0.280903388              -0.378307956               0.000000000               0.299722710              -0.402646365               0.000000000               0.318542033              -0.426984773               0.000000000               0.337361355              -0.451323182               0.000000000               0.356180678              -0.475661591               0.000000000               0.375000000              -0.500000000               0.000000000               0.062695766              -0.117295528               0.000000000               0.078308531              -0.141214558               0.000000000               0.093921295              -0.165133587               0.000000000               0.109534060              -0.189052617               0.000000000               0.125146824              -0.212971646               0.000000000               0.140759589              -0.236890676               0.000000000               0.156372354              -0.260809705               0.000000000               0.171985118              -0.284728735               0.000000000               0.187597883              -0.308647764               0.000000000               0.203210648              -0.332566794               0.000000000               0.218823412              -0.356485823               0.000000000               0.234436177              -0.380404853               0.000000000               0.250048941              -0.404323882               0.000000000               0.265661706              -0.428242912               0.000000000               0.281274471              -0.452161941               0.000000000               0.296887235              -0.476080971               0.000000000               0.312500000              -0.500000000               0.000000000               0.050896897              -0.122875978               0.000000000               0.063340840              -0.146446229               0.000000000               0.075784784              -0.170016481               0.000000000               0.088228728              -0.193586732               0.000000000               0.100672672              -0.217156983               0.000000000               0.113116616              -0.240727235               0.000000000               0.125560560              -0.264297486               0.000000000               0.138004504              -0.287867738               0.000000000               0.150448448              -0.311437989               0.000000000               0.162892392              -0.335008240               0.000000000               0.175336336              -0.358578492               0.000000000               0.187780280              -0.382148743               0.000000000               0.200224224              -0.405718994               0.000000000               0.212668168              -0.429289246               0.000000000               0.225112112              -0.452859497               0.000000000               0.237556056              -0.476429749               0.000000000               0.250000000              -0.500000000               0.000000000               0.038607862              -0.127273065               0.000000000               0.047913621              -0.150568498               0.000000000               0.057219379              -0.173863932               0.000000000               0.066525138              -0.197159365               0.000000000               0.075830897              -0.220454798               0.000000000               0.085136655              -0.243750232               0.000000000               0.094442414              -0.267045665               0.000000000               0.103748172              -0.290341099               0.000000000               0.113053931              -0.313636532               0.000000000               0.122359690              -0.336931966               0.000000000               0.131665448              -0.360227399               0.000000000               0.140971207              -0.383522833               0.000000000               0.150276966              -0.406818266               0.000000000               0.159582724              -0.430113700               0.000000000               0.168888483              -0.453409133               0.000000000               0.178194241              -0.476704567               0.000000000               0.187500000              -0.500000000               0.000000000               0.025947013              -0.130444442               0.000000000               0.032137825              -0.153541665               0.000000000               0.038328636              -0.176638887               0.000000000               0.044519448              -0.199736109               0.000000000               0.050710260              -0.222833332               0.000000000               0.056901071              -0.245930554               0.000000000               0.063091883              -0.269027776               0.000000000               0.069282695              -0.292124999               0.000000000               0.075473506              -0.315222221               0.000000000               0.081664318              -0.338319444               0.000000000               0.087855130              -0.361416666               0.000000000               0.094045942              -0.384513888               0.000000000               0.100236753              -0.407611111               0.000000000               0.106427565              -0.430708333               0.000000000               0.112618377              -0.453805555               0.000000000               0.118809188              -0.476902778               0.000000000               0.125000000              -0.500000000               0.000000000               0.013036280              -0.132359569               0.000000000               0.016127762              -0.155337096               0.000000000               0.019219245              -0.178314623               0.000000000               0.022310727              -0.201292150               0.000000000               0.025402210              -0.224269676               0.000000000               0.028493692              -0.247247203               0.000000000               0.031585175              -0.270224730               0.000000000               0.034676657              -0.293202257               0.000000000               0.037768140              -0.316179784               0.000000000               0.040859622              -0.339157311               0.000000000               0.043951105              -0.362134838               0.000000000               0.047042587              -0.385112365               0.000000000               0.050134070              -0.408089892               0.000000000               0.053225552              -0.431067419               0.000000000               0.056317035              -0.454044946               0.000000000               0.059408517              -0.477022473               0.000000000               0.062500000              -0.500000000               0.000000000               0.000000000              -0.133000000               0.000000000               0.000000000              -0.155937500               0.000000000               0.000000000              -0.178875000               0.000000000               0.000000000              -0.201812500               0.000000000               0.000000000              -0.224750000               0.000000000               0.000000000              -0.247687500               0.000000000               0.000000000              -0.270625000               0.000000000               0.000000000              -0.293562500               0.000000000               0.000000000              -0.316500000               0.000000000               0.000000000              -0.339437500               0.000000000               0.000000000              -0.362375000               0.000000000               0.000000000              -0.385312500               0.000000000               0.000000000              -0.408250000               0.000000000               0.000000000              -0.431187500               0.000000000               0.000000000              -0.454125000               0.000000000               0.000000000              -0.477062500               0.000000000               0.000000000              -0.500000000               0.000000000              -0.133000000               0.000000000               0.000000000              -0.155937500               0.000000000               0.000000000              -0.178875000               0.000000000               0.000000000              -0.201812500               0.000000000               0.000000000              -0.224750000               0.000000000               0.000000000              -0.247687500               0.000000000               0.000000000              -0.270625000               0.000000000               0.000000000              -0.293562500               0.000000000               0.000000000              -0.316500000               0.000000000               0.000000000              -0.339437500               0.000000000               0.000000000              -0.362375000               0.000000000               0.000000000              -0.385312500               0.000000000               0.000000000              -0.408250000               0.000000000               0.000000000              -0.431187500               0.000000000               0.000000000              -0.454125000               0.000000000               0.000000000              -0.477062500               0.000000000               0.000000000              -0.500000000               0.000000000               0.000000000              -0.132359569              -0.013036280               0.000000000              -0.155337096              -0.016127762               0.000000000              -0.178314623              -0.019219245               0.000000000              -0.201292150              -0.022310727               0.000000000              -0.224269676              -0.025402210               0.000000000              -0.247247203              -0.028493692               0.000000000              -0.270224730              -0.031585175               0.000000000              -0.293202257              -0.034676657               0.000000000              -0.316179784              -0.037768140               0.000000000              -0.339157311              -0.040859622               0.000000000              -0.362134838              -0.043951105               0.000000000              -0.385112365              -0.047042587               0.000000000              -0.408089892              -0.050134070               0.000000000              -0.431067419              -0.053225552               0.000000000              -0.454044946              -0.056317035               0.000000000              -0.477022473              -0.059408517               0.000000000              -0.500000000              -0.062500000               0.000000000              -0.130444442              -0.025947013               0.000000000              -0.153541665              -0.032137825               0.000000000              -0.176638887              -0.038328636               0.000000000              -0.199736109              -0.044519448               0.000000000              -0.222833332              -0.050710260               0.000000000              -0.245930554              -0.056901071               0.000000000              -0.269027776              -0.063091883               0.000000000              -0.292124999              -0.069282695               0.000000000              -0.315222221              -0.075473506               0.000000000              -0.338319444              -0.081664318               0.000000000              -0.361416666              -0.087855130               0.000000000              -0.384513888              -0.094045942               0.000000000              -0.407611111              -0.100236753               0.000000000              -0.430708333              -0.106427565               0.000000000              -0.453805555              -0.112618377               0.000000000              -0.476902778              -0.118809188               0.000000000              -0.500000000              -0.125000000               0.000000000              -0.127273065              -0.038607862               0.000000000              -0.150568498              -0.047913621               0.000000000              -0.173863932              -0.057219379               0.000000000              -0.197159365              -0.066525138               0.000000000              -0.220454798              -0.075830897               0.000000000              -0.243750232              -0.085136655               0.000000000              -0.267045665              -0.094442414               0.000000000              -0.290341099              -0.103748172               0.000000000              -0.313636532              -0.113053931               0.000000000              -0.336931966              -0.122359690               0.000000000              -0.360227399              -0.131665448               0.000000000              -0.383522833              -0.140971207               0.000000000              -0.406818266              -0.150276966               0.000000000              -0.430113700              -0.159582724               0.000000000              -0.453409133              -0.168888483               0.000000000              -0.476704567              -0.178194241               0.000000000              -0.500000000              -0.187500000               0.000000000              -0.122875978              -0.050896897               0.000000000              -0.146446229              -0.063340840               0.000000000              -0.170016481              -0.075784784               0.000000000              -0.193586732              -0.088228728               0.000000000              -0.217156983              -0.100672672               0.000000000              -0.240727235              -0.113116616               0.000000000              -0.264297486              -0.125560560               0.000000000              -0.287867738              -0.138004504               0.000000000              -0.311437989              -0.150448448               0.000000000              -0.335008240              -0.162892392               0.000000000              -0.358578492              -0.175336336               0.000000000              -0.382148743              -0.187780280               0.000000000              -0.405718994              -0.200224224               0.000000000              -0.429289246              -0.212668168               0.000000000              -0.452859497              -0.225112112               0.000000000              -0.476429749              -0.237556056               0.000000000              -0.500000000              -0.250000000               0.000000000              -0.117295528              -0.062695766               0.000000000              -0.141214558              -0.078308531               0.000000000              -0.165133587              -0.093921295               0.000000000              -0.189052617              -0.109534060               0.000000000              -0.212971646              -0.125146824               0.000000000              -0.236890676              -0.140759589               0.000000000              -0.260809705              -0.156372354               0.000000000              -0.284728735              -0.171985118               0.000000000              -0.308647764              -0.187597883               0.000000000              -0.332566794              -0.203210648               0.000000000              -0.356485823              -0.218823412               0.000000000              -0.380404853              -0.234436177               0.000000000              -0.404323882              -0.250048941               0.000000000              -0.428242912              -0.265661706               0.000000000              -0.452161941              -0.281274471               0.000000000              -0.476080971              -0.296887235               0.000000000              -0.500000000              -0.312500000               0.000000000              -0.110585458              -0.073890841               0.000000000              -0.134923867              -0.092710163               0.000000000              -0.159262276              -0.111529486               0.000000000              -0.183600685              -0.130348808               0.000000000              -0.207939094              -0.149168131               0.000000000              -0.232277503              -0.167987453               0.000000000              -0.256615912              -0.186806776               0.000000000              -0.280954320              -0.205626098               0.000000000              -0.305292729              -0.224445420               0.000000000              -0.329631138              -0.243264743               0.000000000              -0.353969547              -0.262084065               0.000000000              -0.378307956              -0.280903388               0.000000000              -0.402646365              -0.299722710               0.000000000              -0.426984773              -0.318542033               0.000000000              -0.451323182              -0.337361355               0.000000000              -0.475661591              -0.356180678               0.000000000              -0.500000000              -0.375000000               0.000000000              -0.102810390              -0.084374307               0.000000000              -0.127634741              -0.106444663               0.000000000              -0.152459092              -0.128515018               0.000000000              -0.177283442              -0.150585374               0.000000000              -0.202107793              -0.172655730               0.000000000              -0.226932143              -0.194726086               0.000000000              -0.251756494              -0.216796442               0.000000000              -0.276580845              -0.238866798               0.000000000              -0.301405195              -0.260937153               0.000000000              -0.326229546              -0.283007509               0.000000000              -0.351053896              -0.305077865               0.000000000              -0.375878247              -0.327148221               0.000000000              -0.400702598              -0.349218577               0.000000000              -0.425526948              -0.371288933               0.000000000              -0.450351299              -0.393359288               0.000000000              -0.475175649              -0.415429644               0.000000000              -0.500000000              -0.437500000               0.000000000              -0.094045202              -0.094045202               0.000000000              -0.119417377              -0.119417377               0.000000000              -0.144789552              -0.144789552               0.000000000              -0.170161727              -0.170161727               0.000000000              -0.195533901              -0.195533901               0.000000000              -0.220906076              -0.220906076               0.000000000              -0.246278251              -0.246278251               0.000000000              -0.271650426              -0.271650426               0.000000000              -0.297022601              -0.297022601               0.000000000              -0.322394776              -0.322394776               0.000000000              -0.347766951              -0.347766951               0.000000000              -0.373139126              -0.373139126               0.000000000              -0.398511300              -0.398511300               0.000000000              -0.423883475              -0.423883475               0.000000000              -0.449255650              -0.449255650               0.000000000              -0.474627825              -0.474627825               0.000000000              -0.500000000              -0.500000000               0.000000000              -0.084374307              -0.102810390               0.000000000              -0.106444663              -0.127634741               0.000000000              -0.128515018              -0.152459092               0.000000000              -0.150585374              -0.177283442               0.000000000              -0.172655730              -0.202107793               0.000000000              -0.194726086              -0.226932143               0.000000000              -0.216796442              -0.251756494               0.000000000              -0.238866798              -0.276580845               0.000000000              -0.260937153              -0.301405195               0.000000000              -0.283007509              -0.326229546               0.000000000              -0.305077865              -0.351053896               0.000000000              -0.327148221              -0.375878247               0.000000000              -0.349218577              -0.400702598               0.000000000              -0.371288933              -0.425526948               0.000000000              -0.393359288              -0.450351299               0.000000000              -0.415429644              -0.475175649               0.000000000              -0.437500000              -0.500000000               0.000000000              -0.073890841              -0.110585458               0.000000000              -0.092710163              -0.134923867               0.000000000              -0.111529486              -0.159262276               0.000000000              -0.130348808              -0.183600685               0.000000000              -0.149168131              -0.207939094               0.000000000              -0.167987453              -0.232277503               0.000000000              -0.186806776              -0.256615912               0.000000000              -0.205626098              -0.280954320               0.000000000              -0.224445420              -0.305292729               0.000000000              -0.243264743              -0.329631138               0.000000000              -0.262084065              -0.353969547               0.000000000              -0.280903388              -0.378307956               0.000000000              -0.299722710              -0.402646365               0.000000000              -0.318542033              -0.426984773               0.000000000              -0.337361355              -0.451323182               0.000000000              -0.356180678              -0.475661591               0.000000000              -0.375000000              -0.500000000               0.000000000              -0.062695766              -0.117295528               0.000000000              -0.078308531              -0.141214558               0.000000000              -0.093921295              -0.165133587               0.000000000              -0.109534060              -0.189052617               0.000000000              -0.125146824              -0.212971646               0.000000000              -0.140759589              -0.236890676               0.000000000              -0.156372354              -0.260809705               0.000000000              -0.171985118              -0.284728735               0.000000000              -0.187597883              -0.308647764               0.000000000              -0.203210648              -0.332566794               0.000000000              -0.218823412              -0.356485823               0.000000000              -0.234436177              -0.380404853               0.000000000              -0.250048941              -0.404323882               0.000000000              -0.265661706              -0.428242912               0.000000000              -0.281274471              -0.452161941               0.000000000              -0.296887235              -0.476080971               0.000000000              -0.312500000              -0.500000000               0.000000000              -0.050896897              -0.122875978               0.000000000              -0.063340840              -0.146446229               0.000000000              -0.075784784              -0.170016481               0.000000000              -0.088228728              -0.193586732               0.000000000              -0.100672672              -0.217156983               0.000000000              -0.113116616              -0.240727235               0.000000000              -0.125560560              -0.264297486               0.000000000              -0.138004504              -0.287867738               0.000000000              -0.150448448              -0.311437989               0.000000000              -0.162892392              -0.335008240               0.000000000              -0.175336336              -0.358578492               0.000000000              -0.187780280              -0.382148743               0.000000000              -0.200224224              -0.405718994               0.000000000              -0.212668168              -0.429289246               0.000000000              -0.225112112              -0.452859497               0.000000000              -0.237556056              -0.476429749               0.000000000              -0.250000000              -0.500000000               0.000000000              -0.038607862              -0.127273065               0.000000000              -0.047913621              -0.150568498               0.000000000              -0.057219379              -0.173863932               0.000000000              -0.066525138              -0.197159365               0.000000000              -0.075830897              -0.220454798               0.000000000              -0.085136655              -0.243750232               0.000000000              -0.094442414              -0.267045665               0.000000000              -0.103748172              -0.290341099               0.000000000              -0.113053931              -0.313636532               0.000000000              -0.122359690              -0.336931966               0.000000000              -0.131665448              -0.360227399               0.000000000              -0.140971207              -0.383522833               0.000000000              -0.150276966              -0.406818266               0.000000000              -0.159582724              -0.430113700               0.000000000              -0.168888483              -0.453409133               0.000000000              -0.178194241              -0.476704567               0.000000000              -0.187500000              -0.500000000               0.000000000              -0.025947013              -0.130444442               0.000000000              -0.032137825              -0.153541665               0.000000000              -0.038328636              -0.176638887               0.000000000              -0.044519448              -0.199736109               0.000000000              -0.050710260              -0.222833332               0.000000000              -0.056901071              -0.245930554               0.000000000              -0.063091883              -0.269027776               0.000000000              -0.069282695              -0.292124999               0.000000000              -0.075473506              -0.315222221               0.000000000              -0.081664318              -0.338319444               0.000000000              -0.087855130              -0.361416666               0.000000000              -0.094045942              -0.384513888               0.000000000              -0.100236753              -0.407611111               0.000000000              -0.106427565              -0.430708333               0.000000000              -0.112618377              -0.453805555               0.000000000              -0.118809188              -0.476902778               0.000000000              -0.125000000              -0.500000000               0.000000000              -0.013036280              -0.132359569               0.000000000              -0.016127762              -0.155337096               0.000000000              -0.019219245              -0.178314623               0.000000000              -0.022310727              -0.201292150               0.000000000              -0.025402210              -0.224269676               0.000000000              -0.028493692              -0.247247203               0.000000000              -0.031585175              -0.270224730               0.000000000              -0.034676657              -0.293202257               0.000000000              -0.037768140              -0.316179784               0.000000000              -0.040859622              -0.339157311               0.000000000              -0.043951105              -0.362134838               0.000000000              -0.047042587              -0.385112365               0.000000000              -0.050134070              -0.408089892               0.000000000              -0.053225552              -0.431067419               0.000000000              -0.056317035              -0.454044946               0.000000000              -0.059408517              -0.477022473               0.000000000              -0.062500000              -0.500000000               0.000000000               0.000000000              -0.133000000               0.000000000               0.000000000              -0.155937500               0.000000000               0.000000000              -0.178875000               0.000000000               0.000000000              -0.201812500               0.000000000               0.000000000              -0.224750000               0.000000000               0.000000000              -0.247687500               0.000000000               0.000000000              -0.270625000               0.000000000               0.000000000              -0.293562500               0.000000000               0.000000000              -0.316500000               0.000000000               0.000000000              -0.339437500               0.000000000               0.000000000              -0.362375000               0.000000000               0.000000000              -0.385312500               0.000000000               0.000000000              -0.408250000               0.000000000               0.000000000              -0.431187500               0.000000000               0.000000000              -0.454125000               0.000000000               0.000000000              -0.477062500               0.000000000               0.000000000              -0.500000000               0.000000000              -0.133000000               0.000000000               0.000000000              -0.155937500               0.000000000               0.000000000              -0.178875000               0.000000000               0.000000000              -0.201812500               0.000000000               0.000000000              -0.224750000               0.000000000               0.000000000              -0.247687500               0.000000000               0.000000000              -0.270625000               0.000000000               0.000000000              -0.293562500               0.000000000               0.000000000              -0.316500000               0.000000000               0.000000000              -0.339437500               0.000000000               0.000000000              -0.362375000               0.000000000               0.000000000              -0.385312500               0.000000000               0.000000000              -0.408250000               0.000000000               0.000000000              -0.431187500               0.000000000               0.000000000              -0.454125000               0.000000000               0.000000000              -0.477062500               0.000000000               0.000000000              -0.500000000               0.000000000               0.000000000              -0.132359569               0.013036280               0.000000000              -0.155337096               0.016127762               0.000000000              -0.178314623               0.019219245               0.000000000              -0.201292150               0.022310727               0.000000000              -0.224269676               0.025402210               0.000000000              -0.247247203               0.028493692               0.000000000              -0.270224730               0.031585175               0.000000000              -0.293202257               0.034676657               0.000000000              -0.316179784               0.037768140               0.000000000              -0.339157311               0.040859622               0.000000000              -0.362134838               0.043951105               0.000000000              -0.385112365               0.047042587               0.000000000              -0.408089892               0.050134070               0.000000000              -0.431067419               0.053225552               0.000000000              -0.454044946               0.056317035               0.000000000              -0.477022473               0.059408517               0.000000000              -0.500000000               0.062500000               0.000000000              -0.130444442               0.025947013               0.000000000              -0.153541665               0.032137825               0.000000000              -0.176638887               0.038328636               0.000000000              -0.199736109               0.044519448               0.000000000              -0.222833332               0.050710260               0.000000000              -0.245930554               0.056901071               0.000000000              -0.269027776               0.063091883               0.000000000              -0.292124999               0.069282695               0.000000000              -0.315222221               0.075473506               0.000000000              -0.338319444               0.081664318               0.000000000              -0.361416666               0.087855130               0.000000000              -0.384513888               0.094045942               0.000000000              -0.407611111               0.100236753               0.000000000              -0.430708333               0.106427565               0.000000000              -0.453805555               0.112618377               0.000000000              -0.476902778               0.118809188               0.000000000              -0.500000000               0.125000000               0.000000000              -0.127273065               0.038607862               0.000000000              -0.150568498               0.047913621               0.000000000              -0.173863932               0.057219379               0.000000000              -0.197159365               0.066525138               0.000000000              -0.220454798               0.075830897               0.000000000              -0.243750232               0.085136655               0.000000000              -0.267045665               0.094442414               0.000000000              -0.290341099               0.103748172               0.000000000              -0.313636532               0.113053931               0.000000000              -0.336931966               0.122359690               0.000000000              -0.360227399               0.131665448               0.000000000              -0.383522833               0.140971207               0.000000000              -0.406818266               0.150276966               0.000000000              -0.430113700               0.159582724               0.000000000              -0.453409133               0.168888483               0.000000000              -0.476704567               0.178194241               0.000000000              -0.500000000               0.187500000               0.000000000              -0.122875978               0.050896897               0.000000000              -0.146446229               0.063340840               0.000000000              -0.170016481               0.075784784               0.000000000              -0.193586732               0.088228728               0.000000000              -0.217156983               0.100672672               0.000000000              -0.240727235               0.113116616               0.000000000              -0.264297486               0.125560560               0.000000000              -0.287867738               0.138004504               0.000000000              -0.311437989               0.150448448               0.000000000              -0.335008240               0.162892392               0.000000000              -0.358578492               0.175336336               0.000000000              -0.382148743               0.187780280               0.000000000              -0.405718994               0.200224224               0.000000000              -0.429289246               0.212668168               0.000000000              -0.452859497               0.225112112               0.000000000              -0.476429749               0.237556056               0.000000000              -0.500000000               0.250000000               0.000000000              -0.117295528               0.062695766               0.000000000              -0.141214558               0.078308531               0.000000000              -0.165133587               0.093921295               0.000000000              -0.189052617               0.109534060               0.000000000              -0.212971646               0.125146824               0.000000000              -0.236890676               0.140759589               0.000000000              -0.260809705               0.156372354               0.000000000              -0.284728735               0.171985118               0.000000000              -0.308647764               0.187597883               0.000000000              -0.332566794               0.203210648               0.000000000              -0.356485823               0.218823412               0.000000000              -0.380404853               0.234436177               0.000000000              -0.404323882               0.250048941               0.000000000              -0.428242912               0.265661706               0.000000000              -0.452161941               0.281274471               0.000000000              -0.476080971               0.296887235               0.000000000              -0.500000000               0.312500000               0.000000000              -0.110585458               0.073890841               0.000000000              -0.134923867               0.092710163               0.000000000              -0.159262276               0.111529486               0.000000000              -0.183600685               0.130348808               0.000000000              -0.207939094               0.149168131               0.000000000              -0.232277503               0.167987453               0.000000000              -0.256615912               0.186806776               0.000000000              -0.280954320               0.205626098               0.000000000              -0.305292729               0.224445420               0.000000000              -0.329631138               0.243264743               0.000000000              -0.353969547               0.262084065               0.000000000              -0.378307956               0.280903388               0.000000000              -0.402646365               0.299722710               0.000000000              -0.426984773               0.318542033               0.000000000              -0.451323182               0.337361355               0.000000000              -0.475661591               0.356180678               0.000000000              -0.500000000               0.375000000               0.000000000              -0.102810390               0.084374307               0.000000000              -0.127634741               0.106444663               0.000000000              -0.152459092               0.128515018               0.000000000              -0.177283442               0.150585374               0.000000000              -0.202107793               0.172655730               0.000000000              -0.226932143               0.194726086               0.000000000              -0.251756494               0.216796442               0.000000000              -0.276580845               0.238866798               0.000000000              -0.301405195               0.260937153               0.000000000              -0.326229546               0.283007509               0.000000000              -0.351053896               0.305077865               0.000000000              -0.375878247               0.327148221               0.000000000              -0.400702598               0.349218577               0.000000000              -0.425526948               0.371288933               0.000000000              -0.450351299               0.393359288               0.000000000              -0.475175649               0.415429644               0.000000000              -0.500000000               0.437500000               0.000000000              -0.094045202               0.094045202               0.000000000              -0.119417377               0.119417377               0.000000000              -0.144789552               0.144789552               0.000000000              -0.170161727               0.170161727               0.000000000              -0.195533901               0.195533901               0.000000000              -0.220906076               0.220906076               0.000000000              -0.246278251               0.246278251               0.000000000              -0.271650426               0.271650426               0.000000000              -0.297022601               0.297022601               0.000000000              -0.322394776               0.322394776               0.000000000              -0.347766951               0.347766951               0.000000000              -0.373139126               0.373139126               0.000000000              -0.398511300               0.398511300               0.000000000              -0.423883475               0.423883475               0.000000000              -0.449255650               0.449255650               0.000000000              -0.474627825               0.474627825               0.000000000              -0.500000000               0.500000000               0.000000000              -0.084374307               0.102810390               0.000000000              -0.106444663               0.127634741               0.000000000              -0.128515018               0.152459092               0.000000000              -0.150585374               0.177283442               0.000000000              -0.172655730               0.202107793               0.000000000              -0.194726086               0.226932143               0.000000000              -0.216796442               0.251756494               0.000000000              -0.238866798               0.276580845               0.000000000              -0.260937153               0.301405195               0.000000000              -0.283007509               0.326229546               0.000000000              -0.305077865               0.351053896               0.000000000              -0.327148221               0.375878247               0.000000000              -0.349218577               0.400702598               0.000000000              -0.371288933               0.425526948               0.000000000              -0.393359288               0.450351299               0.000000000              -0.415429644               0.475175649               0.000000000              -0.437500000               0.500000000               0.000000000              -0.073890841               0.110585458               0.000000000              -0.092710163               0.134923867               0.000000000              -0.111529486               0.159262276               0.000000000              -0.130348808               0.183600685               0.000000000              -0.149168131               0.207939094               0.000000000              -0.167987453               0.232277503               0.000000000              -0.186806776               0.256615912               0.000000000              -0.205626098               0.280954320               0.000000000              -0.224445420               0.305292729               0.000000000              -0.243264743               0.329631138               0.000000000              -0.262084065               0.353969547               0.000000000              -0.280903388               0.378307956               0.000000000              -0.299722710               0.402646365               0.000000000              -0.318542033               0.426984773               0.000000000              -0.337361355               0.451323182               0.000000000              -0.356180678               0.475661591               0.000000000              -0.375000000               0.500000000               0.000000000              -0.062695766               0.117295528               0.000000000              -0.078308531               0.141214558               0.000000000              -0.093921295               0.165133587               0.000000000              -0.109534060               0.189052617               0.000000000              -0.125146824               0.212971646               0.000000000              -0.140759589               0.236890676               0.000000000              -0.156372354               0.260809705               0.000000000              -0.171985118               0.284728735               0.000000000              -0.187597883               0.308647764               0.000000000              -0.203210648               0.332566794               0.000000000              -0.218823412               0.356485823               0.000000000              -0.234436177               0.380404853               0.000000000              -0.250048941               0.404323882               0.000000000              -0.265661706               0.428242912               0.000000000              -0.281274471               0.452161941               0.000000000              -0.296887235               0.476080971               0.000000000              -0.312500000               0.500000000               0.000000000              -0.050896897               0.122875978               0.000000000              -0.063340840               0.146446229               0.000000000              -0.075784784               0.170016481               0.000000000              -0.088228728               0.193586732               0.000000000              -0.100672672               0.217156983               0.000000000              -0.113116616               0.240727235               0.000000000              -0.125560560               0.264297486               0.000000000              -0.138004504               0.287867738               0.000000000              -0.150448448               0.311437989               0.000000000              -0.162892392               0.335008240               0.000000000              -0.175336336               0.358578492               0.000000000              -0.187780280               0.382148743               0.000000000              -0.200224224               0.405718994               0.000000000              -0.212668168               0.429289246               0.000000000              -0.225112112               0.452859497               0.000000000              -0.237556056               0.476429749               0.000000000              -0.250000000               0.500000000               0.000000000              -0.038607862               0.127273065               0.000000000              -0.047913621               0.150568498               0.000000000              -0.057219379               0.173863932               0.000000000              -0.066525138               0.197159365               0.000000000              -0.075830897               0.220454798               0.000000000              -0.085136655               0.243750232               0.000000000              -0.094442414               0.267045665               0.000000000              -0.103748172               0.290341099               0.000000000              -0.113053931               0.313636532               0.000000000              -0.122359690               0.336931966               0.000000000              -0.131665448               0.360227399               0.000000000              -0.140971207               0.383522833               0.000000000              -0.150276966               0.406818266               0.000000000              -0.159582724               0.430113700               0.000000000              -0.168888483               0.453409133               0.000000000              -0.178194241               0.476704567               0.000000000              -0.187500000               0.500000000               0.000000000              -0.025947013               0.130444442               0.000000000              -0.032137825               0.153541665               0.000000000              -0.038328636               0.176638887               0.000000000              -0.044519448               0.199736109               0.000000000              -0.050710260               0.222833332               0.000000000              -0.056901071               0.245930554               0.000000000              -0.063091883               0.269027776               0.000000000              -0.069282695               0.292124999               0.000000000              -0.075473506               0.315222221               0.000000000              -0.081664318               0.338319444               0.000000000              -0.087855130               0.361416666               0.000000000              -0.094045942               0.384513888               0.000000000              -0.100236753               0.407611111               0.000000000              -0.106427565               0.430708333               0.000000000              -0.112618377               0.453805555               0.000000000              -0.118809188               0.476902778               0.000000000              -0.125000000               0.500000000               0.000000000              -0.013036280               0.132359569               0.000000000              -0.016127762               0.155337096               0.000000000              -0.019219245               0.178314623               0.000000000              -0.022310727               0.201292150               0.000000000              -0.025402210               0.224269676               0.000000000              -0.028493692               0.247247203               0.000000000              -0.031585175               0.270224730               0.000000000              -0.034676657               0.293202257               0.000000000              -0.037768140               0.316179784               0.000000000              -0.040859622               0.339157311               0.000000000              -0.043951105               0.362134838               0.000000000              -0.047042587               0.385112365               0.000000000              -0.050134070               0.408089892               0.000000000              -0.053225552               0.431067419               0.000000000              -0.056317035               0.454044946               0.000000000              -0.059408517               0.477022473               0.000000000              -0.062500000               0.500000000               0.000000000               0.000000000               0.133000000               0.000000000               0.000000000               0.155937500               0.000000000               0.000000000               0.178875000               0.000000000               0.000000000               0.201812500               0.000000000               0.000000000               0.224750000               0.000000000               0.000000000               0.247687500               0.000000000               0.000000000               0.270625000               0.000000000               0.000000000               0.293562500               0.000000000               0.000000000               0.316500000               0.000000000               0.000000000               0.339437500               0.000000000               0.000000000               0.362375000               0.000000000               0.000000000               0.385312500               0.000000000               0.000000000               0.408250000               0.000000000               0.000000000               0.431187500               0.000000000               0.000000000               0.454125000               0.000000000               0.000000000               0.477062500               0.000000000               0.000000000               0.500000000               0.000000000 </DataArray>
</Points>
<Cells>
<DataArray type="Int32"                                    Name="connectivity"                                                      NumberOfComponents=" 1" format="ascii">
         0          1         18         17          1          2         19         18          2          3         20         19          3          4         21         20          4          5         22         21          5          6         23         22          6          7         24         23          7          8         25         24          8          9         26         25          9         10         27         26         10         11         28         27         11         12         29         28         12         13         30         29         13         14         31         30         14         15         32         31         15         16         33         32         17         18         35         34         18         19         36         35         19         20         37         36         20         21         38         37         21         22         39         38         22         23         40         39         23         24         41         40         24         25         42         41         25         26         43         42         26         27         44         43         27         28         45         44         28         29         46         45         29         30         47         46         30         31         48         47         31         32         49         48         32         33         50         49         34         35         52         51         35         36         53         52         36         37         54         53         37         38         55         54         38         39         56         55         39         40         57         56         40         41         58         57         41         42         59         58         42         43         60         59         43         44         61         60         44         45         62         61         45         46         63         62         46         47         64         63         47         48         65         64         48         49         66         65         49         50         67         66         51         52         69         68         52         53         70         69         53         54         71         70         54         55         72         71         55         56         73         72         56         57         74         73         57         58         75         74         58         59         76         75         59         60         77         76         60         61         78         77         61         62         79         78         62         63         80         79         63         64         81         80         64         65         82         81         65         66         83         82         66         67         84         83         68         69         86         85         69         70         87         86         70         71         88         87         71         72         89         88         72         73         90         89         73         74         91         90         74         75         92         91         75         76         93         92         76         77         94         93         77         78         95         94         78         79         96         95         79         80         97         96         80         81         98         97         81         82         99         98         82         83        100         99         83         84        101        100         85         86        103        102         86         87        104        103         87         88        105        104         88         89        106        105         89         90        107        106         90         91        108        107         91         92        109        108         92         93        110        109         93         94        111        110         94         95        112        111         95         96        113        112         96         97        114        113         97         98        115        114         98         99        116        115         99        100        117        116        100        101        118        117        102        103        120        119        103        104        121        120        104        105        122        121        105        106        123        122        106        107        124        123        107        108        125        124        108        109        126        125        109        110        127        126        110        111        128        127        111        112        129        128        112        113        130        129        113        114        131        130        114        115        132        131        115        116        133        132        116        117        134        133        117        118        135        134        119        120        137        136        120        121        138        137        121        122        139        138        122        123        140        139        123        124        141        140        124        125        142        141        125        126        143        142        126        127        144        143        127        128        145        144        128        129        146        145        129        130        147        146        130        131        148        147        131        132        149        148        132        133        150        149        133        134        151        150        134        135        152        151        136        137        154        153        137        138        155        154        138        139        156        155        139        140        157        156        140        141        158        157        141        142        159        158        142        143        160        159        143        144        161        160        144        145        162        161        145        146        163        162        146        147        164        163        147        148        165        164        148        149        166        165        149        150        167        166        150        151        168        167        151        152        169        168        153        154        171        170        154        155        172        171        155        156        173        172        156        157        174        173        157        158        175        174        158        159        176        175        159        160        177        176        160        161        178        177        161        162        179        178        162        163        180        179        163        164        181        180        164        165        182        181        165        166        183        182        166        167        184        183        167        168        185        184        168        169        186        185        170        171        188        187        171        172        189        188        172        173        190        189        173        174        191        190        174        175        192        191        175        176        193        192        176        177        194        193        177        178        195        194        178        179        196        195        179        180        197        196        180        181        198        197        181        182        199        198        182        183        200        199        183        184        201        200        184        185        202        201        185        186        203        202        187        188        205        204        188        189        206        205        189        190        207        206        190        191        208        207        191        192        209        208        192        193        210        209        193        194        211        210        194        195        212        211        195        196        213        212        196        197        214        213        197        198        215        214        198        199        216        215        199        200        217        216        200        201        218        217        201        202        219        218        202        203        220        219        204        205        222        221        205        206        223        222        206        207        224        223        207        208        225        224        208        209        226        225        209        210        227        226        210        211        228        227        211        212        229        228        212        213        230        229        213        214        231        230        214        215        232        231        215        216        233        232        216        217        234        233        217        218        235        234        218        219        236        235        219        220        237        236        221        222        239        238        222        223        240        239        223        224        241        240        224        225        242        241        225        226        243        242        226        227        244        243        227        228        245        244        228        229        246        245        229        230        247        246        230        231        248        247        231        232        249        248        232        233        250        249        233        234        251        250        234        235        252        251        235        236        253        252        236        237        254        253        238        239        256        255        239        240        257        256        240        241        258        257        241        242        259        258        242        243        260        259        243        244        261        260        244        245        262        261        245        246        263        262        246        247        264        263        247        248        265        264        248        249        266        265        249        250        267        266        250        251        268        267        251        252        269        268        252        253        270        269        253        254        271        270        255        256        273        272        256        257        274        273        257        258        275        274        258        259        276        275        259        260        277        276        260        261        278        277        261        262        279        278        262        263        280        279        263        264        281        280        264        265        282        281        265        266        283        282        266        267        284        283        267        268        285        284        268        269        286        285        269        270        287        286        270        271        288        287        306        307          1          0        307        308          2          1        308        309          3          2        309        310          4          3        310        311          5          4        311        312          6          5        312        313          7          6        313        314          8          7        314        315          9          8        315        316         10          9        316        317         11         10        317        318         12         11        318        319         13         12        319        320         14         13        320        321         15         14        321        322         16         15        323        324        307        306        324        325        308        307        325        326        309        308        326        327        310        309        327        328        311        310        328        329        312        311        329        330        313        312        330        331        314        313        331        332        315        314        332        333        316        315        333        334        317        316        334        335        318        317        335        336        319        318        336        337        320        319        337        338        321        320        338        339        322        321        340        341        324        323        341        342        325        324        342        343        326        325        343        344        327        326        344        345        328        327        345        346        329        328        346        347        330        329        347        348        331        330        348        349        332        331        349        350        333        332        350        351        334        333        351        352        335        334        352        353        336        335        353        354        337        336        354        355        338        337        355        356        339        338        357        358        341        340        358        359        342        341        359        360        343        342        360        361        344        343        361        362        345        344        362        363        346        345        363        364        347        346        364        365        348        347        365        366        349        348        366        367        350        349        367        368        351        350        368        369        352        351        369        370        353        352        370        371        354        353        371        372        355        354        372        373        356        355        374        375        358        357        375        376        359        358        376        377        360        359        377        378        361        360        378        379        362        361        379        380        363        362        380        381        364        363        381        382        365        364        382        383        366        365        383        384        367        366        384        385        368        367        385        386        369        368        386        387        370        369        387        388        371        370        388        389        372        371        389        390        373        372        391        392        375        374        392        393        376        375        393        394        377        376        394        395        378        377        395        396        379        378        396        397        380        379        397        398        381        380        398        399        382        381        399        400        383        382        400        401        384        383        401        402        385        384        402        403        386        385        403        404        387        386        404        405        388        387        405        406        389        388        406        407        390        389        408        409        392        391        409        410        393        392        410        411        394        393        411        412        395        394        412        413        396        395        413        414        397        396        414        415        398        397        415        416        399        398        416        417        400        399        417        418        401        400        418        419        402        401        419        420        403        402        420        421        404        403        421        422        405        404        422        423        406        405        423        424        407        406        425        426        409        408        426        427        410        409        427        428        411        410        428        429        412        411        429        430        413        412        430        431        414        413        431        432        415        414        432        433        416        415        433        434        417        416        434        435        418        417        435        436        419        418        436        437        420        419        437        438        421        420        438        439        422        421        439        440        423        422        440        441        424        423        442        443        426        425        443        444        427        426        444        445        428        427        445        446        429        428        446        447        430        429        447        448        431        430        448        449        432        431        449        450        433        432        450        451        434        433        451        452        435        434        452        453        436        435        453        454        437        436        454        455        438        437        455        456        439        438        456        457        440        439        457        458        441        440        459        460        443        442        460        461        444        443        461        462        445        444        462        463        446        445        463        464        447        446        464        465        448        447        465        466        449        448        466        467        450        449        467        468        451        450        468        469        452        451        469        470        453        452        470        471        454        453        471        472        455        454        472        473        456        455        473        474        457        456        474        475        458        457        476        477        460        459        477        478        461        460        478        479        462        461        479        480        463        462        480        481        464        463        481        482        465        464        482        483        466        465        483        484        467        466        484        485        468        467        485        486        469        468        486        487        470        469        487        488        471        470        488        489        472        471        489        490        473        472        490        491        474        473        491        492        475        474        493        494        477        476        494        495        478        477        495        496        479        478        496        497        480        479        497        498        481        480        498        499        482        481        499        500        483        482        500        501        484        483        501        502        485        484        502        503        486        485        503        504        487        486        504        505        488        487        505        506        489        488        506        507        490        489        507        508        491        490        508        509        492        491        510        511        494        493        511        512        495        494        512        513        496        495        513        514        497        496        514        515        498        497        515        516        499        498        516        517        500        499        517        518        501        500        518        519        502        501        519        520        503        502        520        521        504        503        521        522        505        504        522        523        506        505        523        524        507        506        524        525        508        507        525        526        509        508        527        528        511        510        528        529        512        511        529        530        513        512        530        531        514        513        531        532        515        514        532        533        516        515        533        534        517        516        534        535        518        517        535        536        519        518        536        537        520        519        537        538        521        520        538        539        522        521        539        540        523        522        540        541        524        523        541        542        525        524        542        543        526        525        544        545        528        527        545        546        529        528        546        547        530        529        547        548        531        530        548        549        532        531        549        550        533        532        550        551        534        533        551        552        535        534        552        553        536        535        553        554        537        536        554        555        538        537        555        556        539        538        556        557        540        539        557        558        541        540        558        559        542        541        559        560        543        542        561        562        545        544        562        563        546        545        563        564        547        546        564        565        548        547        565        566        549        548        566        567        550        549        567        568        551        550        568        569        552        551        569        570        553        552        570        571        554        553        571        572        555        554        572        573        556        555        573        574        557        556        574        575        558        557        575        576        559        558        576        577        560        559        578        579        596        595        579        580        597        596        580        581        598        597        581        582        599        598        582        583        600        599        583        584        601        600        584        585        602        601        585        586        603        602        586        587        604        603        587        588        605        604        588        589        606        605        589        590        607        606        590        591        608        607        591        592        609        608        592        593        610        609        593        594        611        610        595        596        613        612        596        597        614        613        597        598        615        614        598        599        616        615        599        600        617        616        600        601        618        617        601        602        619        618        602        603        620        619        603        604        621        620        604        605        622        621        605        606        623        622        606        607        624        623        607        608        625        624        608        609        626        625        609        610        627        626        610        611        628        627        612        613        630        629        613        614        631        630        614        615        632        631        615        616        633        632        616        617        634        633        617        618        635        634        618        619        636        635        619        620        637        636        620        621        638        637        621        622        639        638        622        623        640        639        623        624        641        640        624        625        642        641        625        626        643        642        626        627        644        643        627        628        645        644        629        630        647        646        630        631        648        647        631        632        649        648        632        633        650        649        633        634        651        650        634        635        652        651        635        636        653        652        636        637        654        653        637        638        655        654        638        639        656        655        639        640        657        656        640        641        658        657        641        642        659        658        642        643        660        659        643        644        661        660        644        645        662        661        646        647        664        663        647        648        665        664        648        649        666        665        649        650        667        666        650        651        668        667        651        652        669        668        652        653        670        669        653        654        671        670        654        655        672        671        655        656        673        672        656        657        674        673        657        658        675        674        658        659        676        675        659        660        677        676        660        661        678        677        661        662        679        678        663        664        681        680        664        665        682        681        665        666        683        682        666        667        684        683        667        668        685        684        668        669        686        685        669        670        687        686        670        671        688        687        671        672        689        688        672        673        690        689        673        674        691        690        674        675        692        691        675        676        693        692        676        677        694        693        677        678        695        694        678        679        696        695        680        681        698        697        681        682        699        698        682        683        700        699        683        684        701        700        684        685        702        701        685        686        703        702        686        687        704        703        687        688        705        704        688        689        706        705        689        690        707        706        690        691        708        707        691        692        709        708        692        693        710        709        693        694        711        710        694        695        712        711        695        696        713        712        697        698        715        714        698        699        716        715        699        700        717        716        700        701        718        717        701        702        719        718        702        703        720        719        703        704        721        720        704        705        722        721        705        706        723        722        706        707        724        723        707        708        725        724        708        709        726        725        709        710        727        726        710        711        728        727        711        712        729        728        712        713        730        729        714        715        732        731        715        716        733        732        716        717        734        733        717        718        735        734        718        719        736        735        719        720        737        736        720        721        738        737        721        722        739        738        722        723        740        739        723        724        741        740        724        725        742        741        725        726        743        742        726        727        744        743        727        728        745        744        728        729        746        745        729        730        747        746        731        732        749        748        732        733        750        749        733        734        751        750        734        735        752        751        735        736        753        752        736        737        754        753        737        738        755        754        738        739        756        755        739        740        757        756        740        741        758        757        741        742        759        758        742        743        760        759        743        744        761        760        744        745        762        761        745        746        763        762        746        747        764        763        748        749        766        765        749        750        767        766        750        751        768        767        751        752        769        768        752        753        770        769        753        754        771        770        754        755        772        771        755        756        773        772        756        757        774        773        757        758        775        774        758        759        776        775        759        760        777        776        760        761        778        777        761        762        779        778        762        763        780        779        763        764        781        780        765        766        783        782        766        767        784        783        767        768        785        784        768        769        786        785        769        770        787        786        770        771        788        787        771        772        789        788        772        773        790        789        773        774        791        790        774        775        792        791        775        776        793        792        776        777        794        793        777        778        795        794        778        779        796        795        779        780        797        796        780        781        798        797        782        783        800        799        783        784        801        800        784        785        802        801        785        786        803        802        786        787        804        803        787        788        805        804        788        789        806        805        789        790        807        806        790        791        808        807        791        792        809        808        792        793        810        809        793        794        811        810        794        795        812        811        795        796        813        812        796        797        814        813        797        798        815        814        799        800        817        816        800        801        818        817        801        802        819        818        802        803        820        819        803        804        821        820        804        805        822        821        805        806        823        822        806        807        824        823        807        808        825        824        808        809        826        825        809        810        827        826        810        811        828        827        811        812        829        828        812        813        830        829        813        814        831        830        814        815        832        831        816        817        834        833        817        818        835        834        818        819        836        835        819        820        837        836        820        821        838        837        821        822        839        838        822        823        840        839        823        824        841        840        824        825        842        841        825        826        843        842        826        827        844        843        827        828        845        844        828        829        846        845        829        830        847        846        830        831        848        847        831        832        849        848        833        834        562        561        834        835        563        562        835        836        564        563        836        837        565        564        837        838        566        565        838        839        567        566        839        840        568        567        840        841        569        568        841        842        570        569        842        843        571        570        843        844        572        571        844        845        573        572        845        846        574        573        846        847        575        574        847        848        576        575        848        849        577        576        884        885        579        578        885        886        580        579        886        887        581        580        887        888        582        581        888        889        583        582        889        890        584        583        890        891        585        584        891        892        586        585        892        893        587        586        893        894        588        587        894        895        589        588        895        896        590        589        896        897        591        590        897        898        592        591        898        899        593        592        899        900        594        593        901        902        885        884        902        903        886        885        903        904        887        886        904        905        888        887        905        906        889        888        906        907        890        889        907        908        891        890        908        909        892        891        909        910        893        892        910        911        894        893        911        912        895        894        912        913        896        895        913        914        897        896        914        915        898        897        915        916        899        898        916        917        900        899        918        919        902        901        919        920        903        902        920        921        904        903        921        922        905        904        922        923        906        905        923        924        907        906        924        925        908        907        925        926        909        908        926        927        910        909        927        928        911        910        928        929        912        911        929        930        913        912        930        931        914        913        931        932        915        914        932        933        916        915        933        934        917        916        935        936        919        918        936        937        920        919        937        938        921        920        938        939        922        921        939        940        923        922        940        941        924        923        941        942        925        924        942        943        926        925        943        944        927        926        944        945        928        927        945        946        929        928        946        947        930        929        947        948        931        930        948        949        932        931        949        950        933        932        950        951        934        933        952        953        936        935        953        954        937        936        954        955        938        937        955        956        939        938        956        957        940        939        957        958        941        940        958        959        942        941        959        960        943        942        960        961        944        943        961        962        945        944        962        963        946        945        963        964        947        946        964        965        948        947        965        966        949        948        966        967        950        949        967        968        951        950        969        970        953        952        970        971        954        953        971        972        955        954        972        973        956        955        973        974        957        956        974        975        958        957        975        976        959        958        976        977        960        959        977        978        961        960        978        979        962        961        979        980        963        962        980        981        964        963        981        982        965        964        982        983        966        965        983        984        967        966        984        985        968        967        986        987        970        969        987        988        971        970        988        989        972        971        989        990        973        972        990        991        974        973        991        992        975        974        992        993        976        975        993        994        977        976        994        995        978        977        995        996        979        978        996        997        980        979        997        998        981        980        998        999        982        981        999       1000        983        982       1000       1001        984        983       1001       1002        985        984       1003       1004        987        986       1004       1005        988        987       1005       1006        989        988       1006       1007        990        989       1007       1008        991        990       1008       1009        992        991       1009       1010        993        992       1010       1011        994        993       1011       1012        995        994       1012       1013        996        995       1013       1014        997        996       1014       1015        998        997       1015       1016        999        998       1016       1017       1000        999       1017       1018       1001       1000       1018       1019       1002       1001       1020       1021       1004       1003       1021       1022       1005       1004       1022       1023       1006       1005       1023       1024       1007       1006       1024       1025       1008       1007       1025       1026       1009       1008       1026       1027       1010       1009       1027       1028       1011       1010       1028       1029       1012       1011       1029       1030       1013       1012       1030       1031       1014       1013       1031       1032       1015       1014       1032       1033       1016       1015       1033       1034       1017       1016       1034       1035       1018       1017       1035       1036       1019       1018       1037       1038       1021       1020       1038       1039       1022       1021       1039       1040       1023       1022       1040       1041       1024       1023       1041       1042       1025       1024       1042       1043       1026       1025       1043       1044       1027       1026       1044       1045       1028       1027       1045       1046       1029       1028       1046       1047       1030       1029       1047       1048       1031       1030       1048       1049       1032       1031       1049       1050       1033       1032       1050       1051       1034       1033       1051       1052       1035       1034       1052       1053       1036       1035       1054       1055       1038       1037       1055       1056       1039       1038       1056       1057       1040       1039       1057       1058       1041       1040       1058       1059       1042       1041       1059       1060       1043       1042       1060       1061       1044       1043       1061       1062       1045       1044       1062       1063       1046       1045       1063       1064       1047       1046       1064       1065       1048       1047       1065       1066       1049       1048       1066       1067       1050       1049       1067       1068       1051       1050       1068       1069       1052       1051       1069       1070       1053       1052       1071       1072       1055       1054       1072       1073       1056       1055       1073       1074       1057       1056       1074       1075       1058       1057       1075       1076       1059       1058       1076       1077       1060       1059       1077       1078       1061       1060       1078       1079       1062       1061       1079       1080       1063       1062       1080       1081       1064       1063       1081       1082       1065       1064       1082       1083       1066       1065       1083       1084       1067       1066       1084       1085       1068       1067       1085       1086       1069       1068       1086       1087       1070       1069       1088       1089       1072       1071       1089       1090       1073       1072       1090       1091       1074       1073       1091       1092       1075       1074       1092       1093       1076       1075       1093       1094       1077       1076       1094       1095       1078       1077       1095       1096       1079       1078       1096       1097       1080       1079       1097       1098       1081       1080       1098       1099       1082       1081       1099       1100       1083       1082       1100       1101       1084       1083       1101       1102       1085       1084       1102       1103       1086       1085       1103       1104       1087       1086       1105       1106       1089       1088       1106       1107       1090       1089       1107       1108       1091       1090       1108       1109       1092       1091       1109       1110       1093       1092       1110       1111       1094       1093       1111       1112       1095       1094       1112       1113       1096       1095       1113       1114       1097       1096       1114       1115       1098       1097       1115       1116       1099       1098       1116       1117       1100       1099       1117       1118       1101       1100       1118       1119       1102       1101       1119       1120       1103       1102       1120       1121       1104       1103       1122       1123       1106       1105       1123       1124       1107       1106       1124       1125       1108       1107       1125       1126       1109       1108       1126       1127       1110       1109       1127       1128       1111       1110       1128       1129       1112       1111       1129       1130       1113       1112       1130       1131       1114       1113       1131       1132       1115       1114       1132       1133       1116       1115       1133       1134       1117       1116       1134       1135       1118       1117       1135       1136       1119       1118       1136       1137       1120       1119       1137       1138       1121       1120        272        273       1123       1122        273        274       1124       1123        274        275       1125       1124        275        276       1126       1125        276        277       1127       1126        277        278       1128       1127        278        279       1129       1128        279        280       1130       1129        280        281       1131       1130        281        282       1132       1131        282        283       1133       1132        283        284       1134       1133        284        285       1135       1134        285        286       1136       1135        286        287       1137       1136        287        288       1138       1137 </DataArray>
<DataArray type="Int32"                                    Name="offsets"                                                      NumberOfComponents=" 1" format="ascii">
         4          8         12         16         20         24         28         32         36         40         44         48         52         56         60         64         68         72         76         80         84         88         92         96        100        104        108        112        116        120        124        128        132        136        140        144        148        152        156        160        164        168        172        176        180        184        188        192        196        200        204        208        212        216        220        224        228        232        236        240        244        248        252        256        260        264        268        272        276        280        284        288        292        296        300        304        308        312        316        320        324        328        332        336        340        344        348        352        356        360        364        368        372        376        380        384        388        392        396        400        404        408        412        416        420        424        428        432        436        440        444        448        452        456        460        464        468        472        476        480        484        488        492        496        500        504        508        512        516        520        524        528        532        536        540        544        548        552        556        560        564        568        572        576        580        584        588        592        596        600        604        608        612        616        620        624        628        632        636        640        644        648        652        656        660        664        668        672        676        680        684        688        692        696        700        704        708        712        716        720        724        728        732        736        740        744        748        752        756        760        764        768        772        776        780        784        788        792        796        800        804        808        812        816        820        824        828        832        836        840        844        848        852        856        860        864        868        872        876        880        884        888        892        896        900        904        908        912        916        920        924        928        932        936        940        944        948        952        956        960        964        968        972        976        980        984        988        992        996       1000       1004       1008       1012       1016       1020       1024       1028       1032       1036       1040       1044       1048       1052       1056       1060       1064       1068       1072       1076       1080       1084       1088       1092       1096       1100       1104       1108       1112       1116       1120       1124       1128       1132       1136       1140       1144       1148       1152       1156       1160       1164       1168       1172       1176       1180       1184       1188       1192       1196       1200       1204       1208       1212       1216       1220       1224       1228       1232       1236       1240       1244       1248       1252       1256       1260       1264       1268       1272       1276       1280       1284       1288       1292       1296       1300       1304       1308       1312       1316       1320       1324       1328       1332       1336       1340       1344       1348       1352       1356       1360       1364       1368       1372       1376       1380       1384       1388       1392       1396       1400       1404       1408       1412       1416       1420       1424       1428       1432       1436       1440       1444       1448       1452       1456       1460       1464       1468       1472       1476       1480       1484       1488       1492       1496       1500       1504       1508       1512       1516       1520       1524       1528       1532       1536       1540       1544       1548       1552       1556       1560       1564       1568       1572       1576       1580       1584       1588       1592       1596       1600       1604       1608       1612       1616       1620       1624       1628       1632       1636       1640       1644       1648       1652       1656       1660       1664       1668       1672       1676       1680       1684       1688       1692       1696       1700       1704       1708       1712       1716       1720       1724       1728       1732       1736       1740       1744       1748       1752       1756       1760       1764       1768       1772       1776       1780       1784       1788       1792       1796       1800       1804       1808       1812       1816       1820       1824       1828       1832       1836       1840       1844       1848       1852       1856       1860       1864       1868       1872       1876       1880       1884       1888       1892       1896       1900       1904       1908       1912       1916       1920       1924       1928       1932       1936       1940       1944       1948       1952       1956       1960       1964       1968       1972       1976       1980       1984       1988       1992       1996       2000       2004       2008       2012       2016       2020       2024       2028       2032       2036       2040       2044       2048       2052       2056       2060       2064       2068       2072       2076       2080       2084       2088       2092       2096       2100       2104       2108       2112       2116       2120       2124       2128       2132       2136       2140       2144       2148       2152       2156       2160       2164       2168       2172       2176       2180       2184       2188       2192       2196       2200       2204       2208       2212       2216       2220       2224       2228       2232       2236       2240       2244       2248       2252       2256       2260       2264       2268       2272       2276       2280       2284       2288       2292       2296       2300       2304       2308       2312       2316       2320       2324       2328       2332       2336       2340       2344       2348       2352       2356       2360       2364       2368       2372       2376       2380       2384       2388       2392       2396       2400       2404       2408       2412       2416       2420       2424       2428       2432       2436       2440       2444       2448       2452       2456       2460       2464       2468       2472       2476       2480       2484       2488       2492       2496       2500       2504       2508       2512       2516       2520       2524       2528       2532       2536       2540       2544       2548       2552       2556       2560       2564       2568       2572       2576       2580       2584       2588       2592       2596       2600       2604       2608       2612       2616       2620       2624       2628       2632       2636       2640       2644       2648       2652       2656       2660       2664       2668       2672       2676       2680       2684       2688       2692       2696       2700       2704       2708       2712       2716       2720       2724       2728       2732       2736       2740       2744       2748       2752       2756       2760       2764       2768       2772       2776       2780       2784       2788       2792       2796       2800       2804       2808       2812       2816       2820       2824       2828       2832       2836       2840       2844       2848       2852       2856       2860       2864       2868       2872       2876       2880       2884       2888       2892       2896       2900       2904       2908       2912       2916       2920       2924       2928       2932       2936       2940       2944       2948       2952       2956       2960       2964       2968       2972       2976       2980       2984       2988       2992       2996       3000       3004       3008       3012       3016       3020       3024       3028       3032       3036       3040       3044       3048       3052       3056       3060       3064       3068       3072       3076       3080       3084       3088       3092       3096       3100       3104       3108       3112       3116       3120       3124       3128       3132       3136       3140       3144       3148       3152       3156       3160       3164       3168       3172       3176       3180       3184       3188       3192       3196       3200       3204       3208       3212       3216       3220       3224       3228       3232       3236       3240       3244       3248       3252       3256       3260       3264       3268       3272       3276       3280       3284       3288       3292       3296       3300       3304       3308       3312       3316       3320       3324       3328       3332       3336       3340       3344       3348       3352       3356       3360       3364       3368       3372       3376       3380       3384       3388       3392       3396       3400       3404       3408       3412       3416       3420       3424       3428       3432       3436       3440       3444       3448       3452       3456       3460       3464       3468       3472       3476       3480       3484       3488       3492       3496       3500       3504       3508       3512       3516       3520       3524       3528       3532       3536       3540       3544       3548       3552       3556       3560       3564       3568       3572       3576       3580       3584       3588       3592       3596       3600       3604       3608       3612       3616       3620       3624       3628       3632       3636       3640       3644       3648       3652       3656       3660       3664       3668       3672       3676       3680       3684       3688       3692       3696       3700       3704       3708       3712       3716       3720       3724       3728       3732       3736       3740       3744       3748       3752       3756       3760       3764       3768       3772       3776       3780       3784       3788       3792       3796       3800       3804       3808       3812       3816       3820       3824       3828       3832       3836       3840       3844       3848       3852       3856       3860       3864       3868       3872       3876       3880       3884       3888       3892       3896       3900       3904       3908       3912       3916       3920       3924       3928       3932       3936       3940       3944       3948       3952       3956       3960       3964       3968       3972       3976       3980       3984       3988       3992       3996       4000       4004       4008       4012       4016       4020       4024       4028       4032       4036       4040       4044       4048       4052       4056       4060       4064       4068       4072       4076       4080       4084       4088       4092       4096 </DataArray>
<DataArray type="UInt8"                                    Name="types"                                                      NumberOfComponents=" 1" format="ascii">
         9          9          9          9          9          9          9          9          9          9          9          9          9          9          9          9          9          9          9          9          9          9          9          9          9          9          9          9          9          9          9          9          9          9          9          9          9          9          9          9          9          9          9          9          9          9          9          9          9          9          9          9          9          9          9          9          9          9          9          9          9          9          9          9          9          9          9          9          9          9          9          9          9          9          9          9          9          9          9          9          9          9          9          9          9          9          9          9          9          9          9          9          9          9          9          9          9          9          9          9          9          9          9          9          9          9          9          9          9          9          9          9          9          9          9          9          9          9          9          9          9          9          9          9          9          9          9          9          9          9          9          9          9          9          9          9          9          9          9          9          9          9          9          9          9          9          9          9          9          9          9          9          9          9          9          9          9          9          9          9          9          9          9          9          9          9          9          9          9          9          9          9          9          9          9          9          9          9          9          9          9          9          9          9          9          9          9          9          9          9          9          9          9          9          9          9          9          9          9          9          9          9          9          9          9          9          9          9          9          9          9          9          9          9          9          9          9          9          9          9          9          9          9          9          9          9          9          9          9          9          9          9          9          9          9          9          9          9          9          9          9          9          9          9          9          9          9          9          9          9          9          9          9          9          9          9          9          9          9          9          9          9          9          9          9          9          9          9          9          9          9          9          9          9          9          9          9          9          9          9          9          9          9          9          9          9          9          9          9          9          9          9          9          9          9          9          9          9          9          9          9          9          9          9          9          9          9          9          9          9          9          9          9          9          9          9          9          9          9          9          9          9          9          9          9          9          9          9          9          9          9          9          9          9          9          9          9          9          9          9          9          9          9          9          9          9          9          9          9          9          9          9          9          9          9          9          9          9          9          9          9          9          9          9          9          9          9          9          9          9          9          9          9          9          9          9          9          9          9          9          9          9          9          9          9          9          9          9          9          9          9          9          9          9          9          9          9          9          9          9          9          9          9          9          9          9          9          9          9          9          9          9          9          9          9          9          9          9          9          9          9          9          9          9          9          9          9          9          9          9          9          9          9          9          9          9          9          9          9          9          9          9          9          9          9          9          9          9          9          9          9          9          9          9          9          9          9          9          9          9          9          9          9          9          9          9          9          9          9          9          9          9          9          9          9          9          9          9          9          9          9          9          9          9          9          9          9          9          9          9          9          9          9          9          9          9          9          9          9          9          9          9          9          9          9          9          9          9          9          9          9          9          9          9          9          9          9          9          9          9          9          9          9          9          9          9          9          9          9          9          9          9          9          9          9          9          9          9          9          9          9          9          9          9          9          9          9          9          9          9          9          9          9          9          9          9          9          9          9          9          9          9          9          9          9          9          9          9          9          9          9          9          9          9          9          9          9          9          9          9          9          9          9          9          9          9          9          9          9          9          9          9          9          9          9          9          9          9          9          9          9          9          9          9          9          9          9          9          9          9          9          9          9          9          9          9          9          9          9          9          9          9          9          9          9          9          9          9          9          9          9          9          9          9          9          9          9          9          9          9          9          9          9          9          9          9          9          9          9          9          9          9          9          9          9          9          9          9          9          9          9          9          9          9          9          9          9          9          9          9          9          9          9          9          9          9          9          9          9          9          9          9          9          9          9          9          9          9          9          9          9          9          9          9          9          9          9          9          9          9          9          9          9          9          9          9          9          9          9          9          9          9          9          9          9          9          9          9          9          9          9          9          9          9          9          9          9          9          9          9          9          9          9          9          9          9          9          9          9          9          9          9          9          9          9          9          9          9          9          9          9          9          9          9          9          9          9          9          9          9          9          9          9          9          9          9          9          9          9          9          9          9          9          9          9          9          9          9          9          9          9          9          9          9          9          9          9          9          9          9          9          9          9          9          9          9          9          9          9          9          9          9          9          9          9          9          9          9          9          9          9          9          9          9          9          9          9          9          9          9          9          9          9          9          9          9          9          9          9          9          9          9          9          9          9          9          9          9          9          9          9          9          9          9          9          9          9          9          9          9          9          9          9          9          9          9          9          9          9          9          9          9          9          9          9          9          9          9          9          9          9          9          9          9          9          9          9          9          9          9          9          9          9          9          9          9          9          9          9          9          9          9          9          9          9          9          9          9          9          9          9          9          9          9          9          9          9          9          9          9          9          9          9          9          9          9          9          9          9          9          9          9          9          9          9          9          9          9          9          9          9          9          9          9          9          9          9          9          9          9          9          9          9          9          9          9          9          9          9          9          9          9          9          9          9          9          9          9          9          9          9          9          9          9          9          9          9          9          9          9          9          9          9          9          9          9          9          9          9          9          9          9          9          9          9          9          9          9          9          9          9          9          9          9          9          9          9          9          9          9          9          9          9          9          9          9          9          9          9          9          9          9          9          9          9          9          9          9          9          9          9          9          9          9 </DataArray>
</Cells>
<CellData>
<DataArray type="Int32"                                    Name="material"                                                      NumberOfComponents=" 1" format="ascii">
         1          1          1          1          1          1          1          1          1          1          1          1          1          1          1          1          1          1          1          1          1          1          1          1          1          1          1          1          1          1          1          1          1          1          1          1          1          1          1          1          1          1          1          1          1          1          1          1          1          1          1          1          1          1          1          1          1          1          1          1          1          1          1          1          1          1          1          1          1          1          1          1          1          1          1          1          1          1          1          1          1          1          1          1          1          1          1          1          1          1          1          1          1          1          1          1          1          1          1          1          1          1          1          1          1          1          1          1          1          1          1          1          1          1          1          1          1          1          1          1          1          1          1          1          1          1          1          1          1          1          1          1          1          1          1          1          1          1          1          1          1          1          1          1          1          1          1          1          1          1          1          1          1          1          1          1          1          1          1          1          1          1          1          1          1          1          1          1          1          1          1          1          1          1          1          1          1          1          1          1          1          1          1          1          1          1          1          1          1          1          1          1          1          1          1          1          1          1          1          1          1          1          1          1          1          1          1          1          1          1          1          1          1          1          1          1          1          1          1          1          1          1          1          1          1          1          1          1          1          1          1          1          1          1          1          1          1          1          1          1          1          1          1          1          1          1          1          1          1          1          1          1          1          1          1          1          1          1          1          1          1          1          1          1          1          1          1          1          1          1          1          1          1          1          1          1          1          1          1          1          1          1          1          1          1          1          1          1          1          1          1          1          1          1          1          1          1          1          1          1          1          1          1          1          1          1          1          1          1          1          1          1          1          1          1          1          1          1          1          1          1          1          1          1          1          1          1          1          1          1          1          1          1          1          1          1          1          1          1          1          1          1          1          1          1          1          1          1          1          1          1          1          1          1          1          1          1          1          1          1          1          1          1          1          1          1          1          1          1          1          1          1          1          1          1          1          1          1          1          1          1          1          1          1          1          1          1          1          1          1          1          1          1          1          1          1          1          1          1          1          1          1          1          1          1          1          1          1          1          1          1          1          1          1          1          1          1          1          1          1          1          1          1          1          1          1          1          1          1          1          1          1          1          1          1          1          1          1          1          1          1          1          1          1          1          1          1          1          1          1          1          1          1          1          1          1          1          1          1          1          1          1          1          1          1          1          1          1          1          1          1          1          1          1          1          1          1          1          1          1          1          1          1          1          1          1          1          1          1          1          1          1          1          1          1          1          1          1          1          1          1          1          1          1          1          1          1          1          1          1          1          1          1          1          1          1          1          1          1          1          1          1          1          1          1          1          1          1          1          1          1          1          1          1          1          1          1          1          1          1          1          1          1          1          1          1          1          1          1          1          1          1          1          1          1          1          1          1          1          1          1          1          1          1          1          1          1          1          1          1          1          1          1          1          1          1          1          1          1          1          1          1          1          1          1          1          1          1          1          1          1          1          1          1          1          1          1          1          1          1          1          1          1          1          1          1          1          1          1          1          1          1          1          1          1          1          1          1          1          1          1          1          1          1          1          1          1          1          1          1          1          1          1          1          1          1          1          1          1          1          1          1          1          1          1          1          1          1          1          1          1          1          1          1          1          1          1          1          1          1          1          1          1          1          1          1          1          1          1          1          1          1          1          1          1          1          1          1          1          1          1          1          1          1          1          1          1          1          1          1          1          1          1          1          1          1          1          1          1          1          1          1          1          1          1          1          1          1          1          1          1          1          1          1          1          1          1          1          1          1          1          1          1          1          1          1          1          1          1          1          1          1          1          1          1          1          1          1          1          1          1          1          1          1          1          1          1          1          1          1          1          1          1          1          1          1          1          1          1          1          1          1          1          1          1          1          1          1          1          1          1          1          1          1          1          1          1          1          1          1          1          1          1          1          1          1          1          1          1          1          1          1          1          1          1          1          1          1          1          1          1          1          1          1          1          1          1          1          1          1          1          1          1          1          1          1          1          1          1          1          1          1          1          1          1          1          1          1          1          1          1          1          1          1          1          1          1          1          1          1          1          1          1          1          1          1          1          1          1          1          1          1          1          1          1          1          1          1          1          1          1          1          1          1          1          1          1          1          1          1          1          1          1          1          1          1          1          1          1          1          1          1          1          1          1          1          1          1          1          1          1          1          1          1          1          1          1          1          1          1          1          1          1          1          1          1          1          1          1          1          1          1          1          1          1          1          1          1          1          1          1          1          1          1          1          1          1          1          1          1          1          1          1          1          1          1          1          1          1          1          1          1          1          1          1          1          1          1          1          1          1          1          1          1          1          1          1          1          1          1          1          1          1          1          1          1          1          1          1          1          1          1          1          1          1          1          1          1          1          1          1          1          1          1          1          1          1          1          1          1          1          1          1          1          1          1          1          1          1          1          1          1          1          1          1          1          1          1          1          1          1          1          1          1          1          1          1          1          1          1          1          1          1          1 </DataArray>
</CellData>
<PointData>
<DataArray type="Float64"                                    Name="u"                                                      NumberOfComponents=" 3" format="ascii">
             -0.000414984               0.000000000               0.999999985              -0.000455803               0.000000000               0.999999985              -0.000474505               0.000000000               0.999999985              -0.000485620              -0.000000000               0.999999985              -0.000494639               0.000000000               0.999999985              -0.000503739               0.000000000               0.999999985              -0.000513667               0.000000000               0.999999985              -0.000524499               0.000000000               0.999999985              -0.000536310              -0.000000000               0.999999985              -0.000549032               0.000000000               0.999999985              -0.000562594               0.000000000               0.999999985              -0.000576914               0.000000000               0.999999985              -0.000591792               0.000000000               0.999999985              -0.000606990              -0.000000000               0.999999985              -0.000622286               0.000000000               0.999999985              -0.000637327               0.000000000               0.999999985              -0.000651524               0.000000000               0.999999985              -0.000412500               0.000103887               0.999999985              -0.000450631               0.000086847               0.999999985              -0.000467696               0.000080284               0.999999985              -0.000477843               0.000079119               0.999999985              -0.000486270               0.000080912               0.999999985              -0.000494971               0.000084284               0.999999985              -0.000504572               0.000088408               0.999999985              -0.000515175               0.000092794               0.999999985              -0.000526786               0.000097261               0.999999985              -0.000539248               0.000101739               0.999999985              -0.000552481               0.000106126               0.999999985              -0.000566357               0.000109957               0.999999985              -0.000580680               0.000112995               0.999999985              -0.000595155               0.000115026               0.999999985              -0.000609471               0.000115763               0.999999985              -0.000623343               0.000114561               0.999999985              -0.000636431               0.000110695               0.999999985              -0.000405201               0.000206652               0.999999985              -0.000435572               0.000172990               0.999999985              -0.000448090               0.000160712               0.999999985              -0.000455598               0.000159121               0.999999985              -0.000462522               0.000163215               0.999999985              -0.000470343               0.000170242               0.999999985              -0.000479303               0.000178627               0.999999985              -0.000489295               0.000187572               0.999999985              -0.000500202               0.000196679               0.999999985              -0.000511831               0.000205795               0.999999985              -0.000523985               0.000214459               0.999999985              -0.000536348               0.000222141               0.999999985              -0.000548700               0.000228330               0.999999985              -0.000560771               0.000232781               0.999999985              -0.000572397               0.000234909               0.999999985              -0.000583506               0.000233942               0.999999985              -0.000593943               0.000228803               0.999999985              -0.000393395               0.000307254               0.999999985              -0.000411608               0.000257901               0.999999985              -0.000417610               0.000241374               0.999999985              -0.000421814               0.000240464               0.999999985              -0.000427044               0.000247578               0.999999985              -0.000433833               0.000258701               0.999999985              -0.000442020               0.000271698               0.999999985              -0.000451275               0.000285448               0.999999985              -0.000461335               0.000299277               0.999999985              -0.000471742               0.000312839               0.999999985              -0.000482099               0.000325675               0.999999985              -0.000492087               0.000337156               0.999999985              -0.000501513               0.000346745               0.999999985              -0.000510335               0.000354160               0.999999985              -0.000518552               0.000358951               0.999999985              -0.000526236               0.000360523               0.999999985              -0.000533490               0.000358258               0.999999985              -0.000377353               0.000404698               0.999999985              -0.000380102               0.000341263               0.999999985              -0.000379012               0.000322170               0.999999985              -0.000380123               0.000323113               0.999999985              -0.000383997               0.000333960               0.999999985              -0.000390192               0.000349577               0.999999985              -0.000397914               0.000367374               0.999999985              -0.000406561               0.000386019               0.999999985              -0.000415584               0.000404566               0.999999985              -0.000424534               0.000422432               0.999999985              -0.000432942               0.000439102               0.999999985              -0.000440475               0.000454170               0.999999985              -0.000447066               0.000467214               0.999999985              -0.000452880               0.000478146               0.999999985              -0.000458025               0.000486797               0.999999985              -0.000462593               0.000492745               0.999999985              -0.000466858               0.000496273               0.999999985              -0.000357419               0.000497973               0.999999985              -0.000342747               0.000422892               0.999999985              -0.000335222               0.000402956               0.999999985              -0.000334284               0.000406705               0.999999985              -0.000337804               0.000421636               0.999999985              -0.000344122               0.000441958               0.999999985              -0.000351866               0.000464513               0.999999985              -0.000360092               0.000487759               0.999999985              -0.000368182               0.000510746               0.999999985              -0.000375596               0.000532675               0.999999985              -0.000381944               0.000553089               0.999999985              -0.000387162               0.000571736               0.999999985              -0.000391305               0.000588454               0.999999985              -0.000394496               0.000603244               0.999999985              -0.000396832               0.000616080               0.999999985              -0.000398536               0.000627113               0.999999985              -0.000399891               0.000636960               0.999999985              -0.000333942               0.000586170               0.999999985              -0.000301503               0.000502620               0.999999985              -0.000289230               0.000483364               0.999999985              -0.000287953               0.000490352               0.999999985              -0.000292336               0.000509443               0.999999985              -0.000299456               0.000534246               0.999999985              -0.000307553               0.000561296               0.999999985              -0.000315496               0.000588772               0.999999985              -0.000322627               0.000615778               0.999999985              -0.000328409               0.000641449               0.999999985              -0.000332737               0.000665538               0.999999985              -0.000335540               0.000687835               0.999999985              -0.000337012               0.000708357               0.999999985              -0.000337339               0.000727165               0.999999985              -0.000336755               0.000744483               0.999999985              -0.000335376               0.000760579               0.999999985              -0.000333284               0.000775851               0.999999985              -0.000307453               0.000668378               0.999999985              -0.000258539               0.000580182               0.999999985              -0.000243833               0.000562639               0.999999985              -0.000243896               0.000572956               0.999999985              -0.000250029               0.000595941               0.999999985              -0.000258407               0.000624832               0.999999985              -0.000266988               0.000656021               0.999999985              -0.000274548               0.000687405               0.999999985              -0.000280487               0.000718080               0.999999985              -0.000284417               0.000747238               0.999999985              -0.000286311               0.000774788               0.999999985              -0.000286270               0.000800754               0.999999985              -0.000284573               0.000825127               0.999999985              -0.000281420               0.000848072               0.999999985              -0.000277003               0.000869752               0.999999985              -0.000271526               0.000890407               0.999999985              -0.000265072               0.000910021               0.999999985              -0.000279193               0.000743063               0.999999985              -0.000215428               0.000655442               0.999999985              -0.000201477               0.000639863               0.999999985              -0.000204028               0.000653158               0.999999985              -0.000212280               0.000679752               0.999999985              -0.000221988               0.000712491               0.999999985              -0.000230819               0.000747454               0.999999985              -0.000237678               0.000782521               0.999999985              -0.000241934               0.000816549               0.999999985              -0.000243321               0.000849122               0.999999985              -0.000242080               0.000880205               0.999999985              -0.000238337               0.000909781               0.999999985              -0.000232584               0.000937820               0.999999985              -0.000225340               0.000964045               0.999999985              -0.000216971               0.000988716               0.999999985              -0.000207796               0.001012218               0.999999985              -0.000197982               0.001034440               0.999999985              -0.000250622               0.000813099               0.999999985              -0.000180315               0.000736895               0.999999985              -0.000163285               0.000716673               0.999999985              -0.000164201               0.000724168               0.999999985              -0.000171393               0.000745579               0.999999985              -0.000180558               0.000774389               0.999999985              -0.000189273               0.000806784               0.999999985              -0.000196344               0.000840481               0.999999985              -0.000201106               0.000873998               0.999999985              -0.000203026               0.000906823               0.999999985              -0.000202101               0.000938674               0.999999985              -0.000198541               0.000969477               0.999999985              -0.000192564               0.000998947               0.999999985              -0.000184711               0.001026802               0.999999985              -0.000175123               0.001053200               0.999999985              -0.000164529               0.001078085               0.999999985              -0.000153693               0.001101767               0.999999985              -0.000219313               0.000876383               0.999999985              -0.000148059               0.000814938               0.999999985              -0.000127988               0.000794615               0.999999985              -0.000126586               0.000798134               0.999999985              -0.000132162               0.000815402               0.999999985              -0.000140153               0.000840650               0.999999985              -0.000148290               0.000870482               0.999999985              -0.000155307               0.000902623               0.999999985              -0.000160218               0.000935687               0.999999985              -0.000162496               0.000968625               0.999999985              -0.000162052               0.001000981               0.999999985              -0.000158862               0.001032691               0.999999985              -0.000152758               0.001063299               0.999999985              -0.000144143               0.001092526               0.999999985              -0.000133199               0.001120456               0.999999985              -0.000120264               0.001147007               0.999999985              -0.000106422               0.001172450               0.999999985              -0.000186050               0.000931525               0.999999985              -0.000118542               0.000887374               0.999999985              -0.000096653               0.000870345               0.999999985              -0.000092824               0.000872318               0.999999985              -0.000096385               0.000886834               0.999999985              -0.000102791               0.000909346               0.999999985              -0.000109839               0.000936959               0.999999985              -0.000116138               0.000967808               0.999999985              -0.000120843               0.001000411               0.999999985              -0.000123444               0.001033655               0.999999985              -0.000123427               0.001066688               0.999999985              -0.000120656               0.001099372               0.999999985              -0.000114762               0.001131175               0.999999985              -0.000105648               0.001161764               0.999999985              -0.000093431               0.001191213               0.999999985              -0.000078304               0.001219319               0.999999985              -0.000060975               0.001246341               0.999999985              -0.000151028               0.000977867               0.999999985              -0.000091561               0.000951523               0.999999985              -0.000069847               0.000940272               0.999999985              -0.000064223               0.000942939               0.999999985              -0.000065753               0.000956218               0.999999985              -0.000070345               0.000977122               0.999999985              -0.000075864               0.001003290               0.999999985              -0.000080949               0.001033210               0.999999985              -0.000084992               0.001065555               0.999999985              -0.000087634               0.001099259               0.999999985              -0.000088030               0.001133417               0.999999985              -0.000085739               0.001167540               0.999999985              -0.000080356               0.001201006               0.999999985              -0.000071391               0.001233340               0.999999985              -0.000058528               0.001264541               0.999999985              -0.000041853               0.001294424               0.999999985              -0.000021341               0.001323149               0.999999985              -0.000114576               0.001014670               0.999999985              -0.000066763               0.001004686               0.999999985              -0.000047553               0.001000396               0.999999985              -0.000041377               0.001005398               0.999999985              -0.000041339               0.001018902               0.999999985              -0.000044145               0.001039278               0.999999985              -0.000047930               0.001064877               0.999999985              -0.000051644               0.001094385               0.999999985              -0.000054787               0.001126734               0.999999985              -0.000056949               0.001161104               0.999999985              -0.000057499               0.001196641               0.999999985              -0.000055901               0.001232684               0.999999985              -0.000051277               0.001268472               0.999999985              -0.000043166               0.001303408               0.999999985              -0.000031149               0.001337186               0.999999985              -0.000014533               0.001369528               0.999999985               0.000007507               0.001400534               0.999999985              -0.000077039               0.001041309               0.999999985              -0.000043646               0.001044439               0.999999985              -0.000029242               0.001046707               0.999999985              -0.000023963               0.001054729               0.999999985              -0.000023159               0.001069400               0.999999985              -0.000024588               0.001090111               0.999999985              -0.000026822               0.001115783               0.999999985              -0.000029173               0.001145420               0.999999985              -0.000031213               0.001178175               0.999999985              -0.000032652               0.001213266               0.999999985              -0.000033139               0.001250118               0.999999985              -0.000032029               0.001288146               0.999999985              -0.000028679               0.001326446               0.999999985              -0.000022525               0.001364274               0.999999985              -0.000013030               0.001401141               0.999999985               0.000000743               0.001436626               0.999999985               0.000020095               0.001470493               0.999999985              -0.000038722               0.001057385               0.999999985              -0.000021593               0.001069008               0.999999985              -0.000013860               0.001075956               0.999999985              -0.000010796               0.001086484               0.999999985              -0.000010109               0.001102403               0.999999985              -0.000010638               0.001123661               0.999999985              -0.000011634               0.001149689               0.999999985              -0.000012799               0.001179686               0.999999985              -0.000013719               0.001212904               0.999999985              -0.000014451               0.001248707               0.999999985              -0.000014699               0.001286588               0.999999985              -0.000014090               0.001326072               0.999999985              -0.000012351               0.001366222               0.999999985              -0.000009084               0.001406234               0.999999985              -0.000003806               0.001445585               0.999999985               0.000004071               0.001483741               0.999999985               0.000015522               0.001520167               0.999999985               0.000000000               0.001062699               0.999999985              -0.000000000               0.001077281               0.999999985               0.000000000               0.001085971               0.999999985               0.000000000               0.001097428               0.999999985              -0.000000000               0.001113906               0.999999985              -0.000000000               0.001135473               0.999999985              -0.000000000               0.001161590               0.999999985               0.000000000               0.001191753               0.999999985              -0.000000000               0.001225173               0.999999985               0.000000000               0.001261228               0.999999985              -0.000000000               0.001299497               0.999999985               0.000000000               0.001339522               0.999999985               0.000000000               0.001380402               0.999999985              -0.000000000               0.001421292               0.999999985               0.000000000               0.001461645               0.999999985               0.000000000               0.001500842               0.999999985              -0.000000000               0.001538276               0.999999985              -0.000414984               0.000000000               0.999999985              -0.000455803               0.000000000               0.999999985              -0.000474505               0.000000000               0.999999985              -0.000485620              -0.000000000               0.999999985              -0.000494639               0.000000000               0.999999985              -0.000503739               0.000000000               0.999999985              -0.000513667               0.000000000               0.999999985              -0.000524499               0.000000000               0.999999985              -0.000536310              -0.000000000               0.999999985              -0.000549032               0.000000000               0.999999985              -0.000562594               0.000000000               0.999999985              -0.000576914               0.000000000               0.999999985              -0.000591792               0.000000000               0.999999985              -0.000606990              -0.000000000               0.999999985              -0.000622286               0.000000000               0.999999985              -0.000637327               0.000000000               0.999999985              -0.000651524               0.000000000               0.999999985              -0.000412500              -0.000103887               0.999999985              -0.000450631              -0.000086847               0.999999985              -0.000467696              -0.000080284               0.999999985              -0.000477843              -0.000079119               0.999999985              -0.000486270              -0.000080912               0.999999985              -0.000494971              -0.000084284               0.999999985              -0.000504572              -0.000088408               0.999999985              -0.000515175              -0.000092794               0.999999985              -0.000526786              -0.000097261               0.999999985              -0.000539248              -0.000101739               0.999999985              -0.000552481              -0.000106126               0.999999985              -0.000566357              -0.000109957               0.999999985              -0.000580680              -0.000112995               0.999999985              -0.000595155              -0.000115026               0.999999985              -0.000609471              -0.000115763               0.999999985              -0.000623343              -0.000114561               0.999999985              -0.000636431              -0.000110695               0.999999985              -0.000405201              -0.000206652               0.999999985              -0.000435572              -0.000172990               0.999999985              -0.000448090              -0.000160712               0.999999985              -0.000455598              -0.000159121               0.999999985              -0.000462522              -0.000163215               0.999999985              -0.000470343              -0.000170242               0.999999985              -0.000479303              -0.000178627               0.999999985              -0.000489295              -0.000187572               0.999999985              -0.000500202              -0.000196679               0.999999985              -0.000511831              -0.000205795               0.999999985              -0.000523985              -0.000214459               0.999999985              -0.000536348              -0.000222141               0.999999985              -0.000548700              -0.000228330               0.999999985              -0.000560771              -0.000232781               0.999999985              -0.000572397              -0.000234909               0.999999985              -0.000583506              -0.000233942               0.999999985              -0.000593943              -0.000228803               0.999999985              -0.000393395              -0.000307254               0.999999985              -0.000411608              -0.000257901               0.999999985              -0.000417610              -0.000241374               0.999999985              -0.000421814              -0.000240464               0.999999985              -0.000427044              -0.000247578               0.999999985              -0.000433833              -0.000258701               0.999999985              -0.000442020              -0.000271698               0.999999985              -0.000451275              -0.000285448               0.999999985              -0.000461335              -0.000299277               0.999999985              -0.000471742              -0.000312839               0.999999985              -0.000482099              -0.000325675               0.999999985              -0.000492087              -0.000337156               0.999999985              -0.000501513              -0.000346745               0.999999985              -0.000510335              -0.000354160               0.999999985              -0.000518552              -0.000358951               0.999999985              -0.000526236              -0.000360523               0.999999985              -0.000533490              -0.000358258               0.999999985              -0.000377353              -0.000404698               0.999999985              -0.000380102              -0.000341263               0.999999985              -0.000379012              -0.000322170               0.999999985              -0.000380123              -0.000323113               0.999999985              -0.000383997              -0.000333960               0.999999985              -0.000390192              -0.000349577               0.999999985              -0.000397914              -0.000367374               0.999999985              -0.000406561              -0.000386019               0.999999985              -0.000415584              -0.000404566               0.999999985              -0.000424534              -0.000422432               0.999999985              -0.000432942              -0.000439102               0.999999985              -0.000440475              -0.000454170               0.999999985              -0.000447066              -0.000467214               0.999999985              -0.000452880              -0.000478146               0.999999985              -0.000458025              -0.000486797               0.999999985              -0.000462593              -0.000492745               0.999999985              -0.000466858              -0.000496273               0.999999985              -0.000357419              -0.000497973               0.999999985              -0.000342747              -0.000422892               0.999999985              -0.000335222              -0.000402956               0.999999985              -0.000334284              -0.000406705               0.999999985              -0.000337804              -0.000421636               0.999999985              -0.000344122              -0.000441958               0.999999985              -0.000351866              -0.000464513               0.999999985              -0.000360092              -0.000487759               0.999999985              -0.000368182              -0.000510746               0.999999985              -0.000375596              -0.000532675               0.999999985              -0.000381944              -0.000553089               0.999999985              -0.000387162              -0.000571736               0.999999985              -0.000391305              -0.000588454               0.999999985              -0.000394496              -0.000603244               0.999999985              -0.000396832              -0.000616080               0.999999985              -0.000398536              -0.000627113               0.999999985              -0.000399891              -0.000636960               0.999999985              -0.000333942              -0.000586170               0.999999985              -0.000301503              -0.000502620               0.999999985              -0.000289230              -0.000483364               0.999999985              -0.000287953              -0.000490352               0.999999985              -0.000292336              -0.000509443               0.999999985              -0.000299456              -0.000534246               0.999999985              -0.000307553              -0.000561296               0.999999985              -0.000315496              -0.000588772               0.999999985              -0.000322627              -0.000615778               0.999999985              -0.000328409              -0.000641449               0.999999985              -0.000332737              -0.000665538               0.999999985              -0.000335540              -0.000687835               0.999999985              -0.000337012              -0.000708357               0.999999985              -0.000337339              -0.000727165               0.999999985              -0.000336755              -0.000744483               0.999999985              -0.000335376              -0.000760579               0.999999985              -0.000333284              -0.000775851               0.999999985              -0.000307453              -0.000668378               0.999999985              -0.000258539              -0.000580182               0.999999985              -0.000243833              -0.000562639               0.999999985              -0.000243896              -0.000572956               0.999999985              -0.000250029              -0.000595941               0.999999985              -0.000258407              -0.000624832               0.999999985              -0.000266988              -0.000656021               0.999999985              -0.000274548              -0.000687405               0.999999985              -0.000280487              -0.000718080               0.999999985              -0.000284417              -0.000747238               0.999999985              -0.000286311              -0.000774788               0.999999985              -0.000286270              -0.000800754               0.999999985              -0.000284573              -0.000825127               0.999999985              -0.000281420              -0.000848072               0.999999985              -0.000277003              -0.000869752               0.999999985              -0.000271526              -0.000890407               0.999999985              -0.000265072              -0.000910021               0.999999985              -0.000279193              -0.000743063               0.999999985              -0.000215428              -0.000655442               0.999999985              -0.000201477              -0.000639863               0.999999985              -0.000204028              -0.000653158               0.999999985              -0.000212280              -0.000679752               0.999999985              -0.000221988              -0.000712491               0.999999985              -0.000230819              -0.000747454               0.999999985              -0.000237678              -0.000782521               0.999999985              -0.000241934              -0.000816549               0.999999985              -0.000243321              -0.000849122               0.999999985              -0.000242080              -0.000880205               0.999999985              -0.000238337              -0.000909781               0.999999985              -0.000232584              -0.000937820               0.999999985              -0.000225340              -0.000964045               0.999999985              -0.000216971              -0.000988716               0.999999985              -0.000207796              -0.001012218               0.999999985              -0.000197982              -0.001034440               0.999999985              -0.000250622              -0.000813099               0.999999985              -0.000180315              -0.000736895               0.999999985              -0.000163285              -0.000716673               0.999999985              -0.000164201              -0.000724168               0.999999985              -0.000171393              -0.000745579               0.999999985              -0.000180558              -0.000774389               0.999999985              -0.000189273              -0.000806784               0.999999985              -0.000196344              -0.000840481               0.999999985              -0.000201106              -0.000873998               0.999999985              -0.000203026              -0.000906823               0.999999985              -0.000202101              -0.000938674               0.999999985              -0.000198541              -0.000969477               0.999999985              -0.000192564              -0.000998947               0.999999985              -0.000184711              -0.001026802               0.999999985              -0.000175123              -0.001053200               0.999999985              -0.000164529              -0.001078085               0.999999985              -0.000153693              -0.001101767               0.999999985              -0.000219313              -0.000876383               0.999999985              -0.000148059              -0.000814938               0.999999985              -0.000127988              -0.000794615               0.999999985              -0.000126586              -0.000798134               0.999999985              -0.000132162              -0.000815402               0.999999985              -0.000140153              -0.000840650               0.999999985              -0.000148290              -0.000870482               0.999999985              -0.000155307              -0.000902623               0.999999985              -0.000160218              -0.000935687               0.999999985              -0.000162496              -0.000968625               0.999999985              -0.000162052              -0.001000981               0.999999985              -0.000158862              -0.001032691               0.999999985              -0.000152758              -0.001063299               0.999999985              -0.000144143              -0.001092526               0.999999985              -0.000133199              -0.001120456               0.999999985              -0.000120264              -0.001147007               0.999999985              -0.000106422              -0.001172450               0.999999985              -0.000186050              -0.000931525               0.999999985              -0.000118542              -0.000887374               0.999999985              -0.000096653              -0.000870345               0.999999985              -0.000092824              -0.000872318               0.999999985              -0.000096385              -0.000886834               0.999999985              -0.000102791              -0.000909346               0.999999985              -0.000109839              -0.000936959               0.999999985              -0.000116138              -0.000967808               0.999999985              -0.000120843              -0.001000411               0.999999985              -0.000123444              -0.001033655               0.999999985              -0.000123427              -0.001066688               0.999999985              -0.000120656              -0.001099372               0.999999985              -0.000114762              -0.001131175               0.999999985              -0.000105648              -0.001161764               0.999999985              -0.000093431              -0.001191213               0.999999985              -0.000078304              -0.001219319               0.999999985              -0.000060975              -0.001246341               0.999999985              -0.000151028              -0.000977867               0.999999985              -0.000091561              -0.000951523               0.999999985              -0.000069847              -0.000940272               0.999999985              -0.000064223              -0.000942939               0.999999985              -0.000065753              -0.000956218               0.999999985              -0.000070345              -0.000977122               0.999999985              -0.000075864              -0.001003290               0.999999985              -0.000080949              -0.001033210               0.999999985              -0.000084992              -0.001065555               0.999999985              -0.000087634              -0.001099259               0.999999985              -0.000088030              -0.001133417               0.999999985              -0.000085739              -0.001167540               0.999999985              -0.000080356              -0.001201006               0.999999985              -0.000071391              -0.001233340               0.999999985              -0.000058528              -0.001264541               0.999999985              -0.000041853              -0.001294424               0.999999985              -0.000021341              -0.001323149               0.999999985              -0.000114576              -0.001014670               0.999999985              -0.000066763              -0.001004686               0.999999985              -0.000047553              -0.001000396               0.999999985              -0.000041377              -0.001005398               0.999999985              -0.000041339              -0.001018902               0.999999985              -0.000044145              -0.001039278               0.999999985              -0.000047930              -0.001064877               0.999999985              -0.000051644              -0.001094385               0.999999985              -0.000054787              -0.001126734               0.999999985              -0.000056949              -0.001161104               0.999999985              -0.000057499              -0.001196641               0.999999985              -0.000055901              -0.001232684               0.999999985              -0.000051277              -0.001268472               0.999999985              -0.000043166              -0.001303408               0.999999985              -0.000031149              -0.001337186               0.999999985              -0.000014533              -0.001369528               0.999999985               0.000007507              -0.001400534               0.999999985              -0.000077039              -0.001041309               0.999999985              -0.000043646              -0.001044439               0.999999985              -0.000029242              -0.001046707               0.999999985              -0.000023963              -0.001054729               0.999999985              -0.000023159              -0.001069400               0.999999985              -0.000024588              -0.001090111               0.999999985              -0.000026822              -0.001115783               0.999999985              -0.000029173              -0.001145420               0.999999985              -0.000031213              -0.001178175               0.999999985              -0.000032652              -0.001213266               0.999999985              -0.000033139              -0.001250118               0.999999985              -0.000032029              -0.001288146               0.999999985              -0.000028679              -0.001326446               0.999999985              -0.000022525              -0.001364274               0.999999985              -0.000013030              -0.001401141               0.999999985               0.000000743              -0.001436626               0.999999985               0.000020095              -0.001470493               0.999999985              -0.000038722              -0.001057385               0.999999985              -0.000021593              -0.001069008               0.999999985              -0.000013860              -0.001075956               0.999999985              -0.000010796              -0.001086484               0.999999985              -0.000010109              -0.001102403               0.999999985              -0.000010638              -0.001123661               0.999999985              -0.000011634              -0.001149689               0.999999985              -0.000012799              -0.001179686               0.999999985              -0.000013719              -0.001212904               0.999999985              -0.000014451              -0.001248707               0.999999985              -0.000014699              -0.001286588               0.999999985              -0.000014090              -0.001326072               0.999999985              -0.000012351              -0.001366222               0.999999985              -0.000009084              -0.001406234               0.999999985              -0.000003806              -0.001445585               0.999999985               0.000004071              -0.001483741               0.999999985               0.000015522              -0.001520167               0.999999985               0.000000000              -0.001062699               0.999999985              -0.000000000              -0.001077281               0.999999985              -0.000000000              -0.001085971               0.999999985              -0.000000000              -0.001097428               0.999999985               0.000000000              -0.001113906               0.999999985              -0.000000000              -0.001135473               0.999999985              -0.000000000              -0.001161590               0.999999985              -0.000000000              -0.001191753               0.999999985              -0.000000000              -0.001225173               0.999999985               0.000000000              -0.001261228               0.999999985              -0.000000000              -0.001299497               0.999999985              -0.000000000              -0.001339522               0.999999985              -0.000000000              -0.001380402               0.999999985               0.000000000              -0.001421292               0.999999985              -0.000000000              -0.001461645               0.999999985              -0.000000000              -0.001500842               0.999999985              -0.000000000              -0.001538276               0.999999985               0.000414984               0.000000000               0.999999985               0.000455803              -0.000000000               0.999999985               0.000474505              -0.000000000               0.999999985               0.000485620               0.000000000               0.999999985               0.000494639              -0.000000000               0.999999985               0.000503739               0.000000000               0.999999985               0.000513667              -0.000000000               0.999999985               0.000524499              -0.000000000               0.999999985               0.000536310              -0.000000000               0.999999985               0.000549032              -0.000000000               0.999999985               0.000562594               0.000000000               0.999999985               0.000576914               0.000000000               0.999999985               0.000591792               0.000000000               0.999999985               0.000606990               0.000000000               0.999999985               0.000622286               0.000000000               0.999999985               0.000637327               0.000000000               0.999999985               0.000651524               0.000000000               0.999999985               0.000412500              -0.000103887               0.999999985               0.000450631              -0.000086847               0.999999985               0.000467696              -0.000080284               0.999999985               0.000477843              -0.000079119               0.999999985               0.000486270              -0.000080912               0.999999985               0.000494971              -0.000084284               0.999999985               0.000504572              -0.000088408               0.999999985               0.000515175              -0.000092794               0.999999985               0.000526786              -0.000097261               0.999999985               0.000539248              -0.000101739               0.999999985               0.000552481              -0.000106126               0.999999985               0.000566357              -0.000109957               0.999999985               0.000580680              -0.000112995               0.999999985               0.000595155              -0.000115026               0.999999985               0.000609471              -0.000115763               0.999999985               0.000623343              -0.000114561               0.999999985               0.000636431              -0.000110695               0.999999985               0.000405201              -0.000206652               0.999999985               0.000435572              -0.000172990               0.999999985               0.000448090              -0.000160712               0.999999985               0.000455598              -0.000159121               0.999999985               0.000462522              -0.000163215               0.999999985               0.000470343              -0.000170242               0.999999985               0.000479303              -0.000178627               0.999999985               0.000489295              -0.000187572               0.999999985               0.000500202              -0.000196679               0.999999985               0.000511831              -0.000205795               0.999999985               0.000523985              -0.000214459               0.999999985               0.000536348              -0.000222141               0.999999985               0.000548700              -0.000228330               0.999999985               0.000560771              -0.000232781               0.999999985               0.000572397              -0.000234909               0.999999985               0.000583506              -0.000233942               0.999999985               0.000593943              -0.000228803               0.999999985               0.000393395              -0.000307254               0.999999985               0.000411608              -0.000257901               0.999999985               0.000417610              -0.000241374               0.999999985               0.000421814              -0.000240464               0.999999985               0.000427044              -0.000247578               0.999999985               0.000433833              -0.000258701               0.999999985               0.000442020              -0.000271698               0.999999985               0.000451275              -0.000285448               0.999999985               0.000461335              -0.000299277               0.999999985               0.000471742              -0.000312839               0.999999985               0.000482099              -0.000325675               0.999999985               0.000492087              -0.000337156               0.999999985               0.000501513              -0.000346745               0.999999985               0.000510335              -0.000354160               0.999999985               0.000518552              -0.000358951               0.999999985               0.000526236              -0.000360523               0.999999985               0.000533490              -0.000358258               0.999999985               0.000377353              -0.000404698               0.999999985               0.000380102              -0.000341263               0.999999985               0.000379012              -0.000322170               0.999999985               0.000380123              -0.000323113               0.999999985               0.000383997              -0.000333960               0.999999985               0.000390192              -0.000349577               0.999999985               0.000397914              -0.000367374               0.999999985               0.000406561              -0.000386019               0.999999985               0.000415584              -0.000404566               0.999999985               0.000424534              -0.000422432               0.999999985               0.000432942              -0.000439102               0.999999985               0.000440475              -0.000454170               0.999999985               0.000447066              -0.000467214               0.999999985               0.000452880              -0.000478146               0.999999985               0.000458025              -0.000486797               0.999999985               0.000462593              -0.000492745               0.999999985               0.000466858              -0.000496273               0.999999985               0.000357419              -0.000497973               0.999999985               0.000342747              -0.000422892               0.999999985               0.000335222              -0.000402956               0.999999985               0.000334284              -0.000406705               0.999999985               0.000337804              -0.000421636               0.999999985               0.000344122              -0.000441958               0.999999985               0.000351866              -0.000464513               0.999999985               0.000360092              -0.000487759               0.999999985               0.000368182              -0.000510746               0.999999985               0.000375596              -0.000532675               0.999999985               0.000381944              -0.000553089               0.999999985               0.000387162              -0.000571736               0.999999985               0.000391305              -0.000588454               0.999999985               0.000394496              -0.000603244               0.999999985               0.000396832              -0.000616080               0.999999985               0.000398536              -0.000627113               0.999999985               0.000399891              -0.000636960               0.999999985               0.000333942              -0.000586170               0.999999985               0.000301503              -0.000502620               0.999999985               0.000289230              -0.000483364               0.999999985               0.000287953              -0.000490352               0.999999985               0.000292336              -0.000509443               0.999999985               0.000299456              -0.000534246               0.999999985               0.000307553              -0.000561296               0.999999985               0.000315496              -0.000588772               0.999999985               0.000322627              -0.000615778               0.999999985               0.000328409              -0.000641449               0.999999985               0.000332737              -0.000665538               0.999999985               0.000335540              -0.000687835               0.999999985               0.000337012              -0.000708357               0.999999985               0.000337339              -0.000727165               0.999999985               0.000336755              -0.000744483               0.999999985               0.000335376              -0.000760579               0.999999985               0.000333284              -0.000775851               0.999999985               0.000307453              -0.000668378               0.999999985               0.000258539              -0.000580182               0.999999985               0.000243833              -0.000562639               0.999999985               0.000243896              -0.000572956               0.999999985               0.000250029              -0.000595941               0.999999985               0.000258407              -0.000624832               0.999999985               0.000266988              -0.000656021               0.999999985               0.000274548              -0.000687405               0.999999985               0.000280487              -0.000718080               0.999999985               0.000284417              -0.000747238               0.999999985               0.000286311              -0.000774788               0.999999985               0.000286270              -0.000800754               0.999999985               0.000284573              -0.000825127               0.999999985               0.000281420              -0.000848072               0.999999985               0.000277003              -0.000869752               0.999999985               0.000271526              -0.000890407               0.999999985               0.000265072              -0.000910021               0.999999985               0.000279193              -0.000743063               0.999999985               0.000215428              -0.000655442               0.999999985               0.000201477              -0.000639863               0.999999985               0.000204028              -0.000653158               0.999999985               0.000212280              -0.000679752               0.999999985               0.000221988              -0.000712491               0.999999985               0.000230819              -0.000747454               0.999999985               0.000237678              -0.000782521               0.999999985               0.000241934              -0.000816549               0.999999985               0.000243321              -0.000849122               0.999999985               0.000242080              -0.000880205               0.999999985               0.000238337              -0.000909781               0.999999985               0.000232584              -0.000937820               0.999999985               0.000225340              -0.000964045               0.999999985               0.000216971              -0.000988716               0.999999985               0.000207796              -0.001012218               0.999999985               0.000197982              -0.001034440               0.999999985               0.000250622              -0.000813099               0.999999985               0.000180315              -0.000736895               0.999999985               0.000163285              -0.000716673               0.999999985               0.000164201              -0.000724168               0.999999985               0.000171393              -0.000745579               0.999999985               0.000180558              -0.000774389               0.999999985               0.000189273              -0.000806784               0.999999985               0.000196344              -0.000840481               0.999999985               0.000201106              -0.000873998               0.999999985               0.000203026              -0.000906823               0.999999985               0.000202101              -0.000938674               0.999999985               0.000198541              -0.000969477               0.999999985               0.000192564              -0.000998947               0.999999985               0.000184711              -0.001026802               0.999999985               0.000175123              -0.001053200               0.999999985               0.000164529              -0.001078085               0.999999985               0.000153693              -0.001101767               0.999999985               0.000219313              -0.000876383               0.999999985               0.000148059              -0.000814938               0.999999985               0.000127988              -0.000794615               0.999999985               0.000126586              -0.000798134               0.999999985               0.000132162              -0.000815402               0.999999985               0.000140153              -0.000840650               0.999999985               0.000148290              -0.000870482               0.999999985               0.000155307              -0.000902623               0.999999985               0.000160218              -0.000935687               0.999999985               0.000162496              -0.000968625               0.999999985               0.000162052              -0.001000981               0.999999985               0.000158862              -0.001032691               0.999999985               0.000152758              -0.001063299               0.999999985               0.000144143              -0.001092526               0.999999985               0.000133199              -0.001120456               0.999999985               0.000120264              -0.001147007               0.999999985               0.000106422              -0.001172450               0.999999985               0.000186050              -0.000931525               0.999999985               0.000118542              -0.000887374               0.999999985               0.000096653              -0.000870345               0.999999985               0.000092824              -0.000872318               0.999999985               0.000096385              -0.000886834               0.999999985               0.000102791              -0.000909346               0.999999985               0.000109839              -0.000936959               0.999999985               0.000116138              -0.000967808               0.999999985               0.000120843              -0.001000411               0.999999985               0.000123444              -0.001033655               0.999999985               0.000123427              -0.001066688               0.999999985               0.000120656              -0.001099372               0.999999985               0.000114762              -0.001131175               0.999999985               0.000105648              -0.001161764               0.999999985               0.000093431              -0.001191213               0.999999985               0.000078304              -0.001219319               0.999999985               0.000060975              -0.001246341               0.999999985               0.000151028              -0.000977867               0.999999985               0.000091561              -0.000951523               0.999999985               0.000069847              -0.000940272               0.999999985               0.000064223              -0.000942939               0.999999985               0.000065753              -0.000956218               0.999999985               0.000070345              -0.000977122               0.999999985               0.000075864              -0.001003290               0.999999985               0.000080949              -0.001033210               0.999999985               0.000084992              -0.001065555               0.999999985               0.000087634              -0.001099259               0.999999985               0.000088030              -0.001133417               0.999999985               0.000085739              -0.001167540               0.999999985               0.000080356              -0.001201006               0.999999985               0.000071391              -0.001233340               0.999999985               0.000058528              -0.001264541               0.999999985               0.000041853              -0.001294424               0.999999985               0.000021341              -0.001323149               0.999999985               0.000114576              -0.001014670               0.999999985               0.000066763              -0.001004686               0.999999985               0.000047553              -0.001000396               0.999999985               0.000041377              -0.001005398               0.999999985               0.000041339              -0.001018902               0.999999985               0.000044145              -0.001039278               0.999999985               0.000047930              -0.001064877               0.999999985               0.000051644              -0.001094385               0.999999985               0.000054787              -0.001126734               0.999999985               0.000056949              -0.001161104               0.999999985               0.000057499              -0.001196641               0.999999985               0.000055901              -0.001232684               0.999999985               0.000051277              -0.001268472               0.999999985               0.000043166              -0.001303408               0.999999985               0.000031149              -0.001337186               0.999999985               0.000014533              -0.001369528               0.999999985              -0.000007507              -0.001400534               0.999999985               0.000077039              -0.001041309               0.999999985               0.000043646              -0.001044439               0.999999985               0.000029242              -0.001046707               0.999999985               0.000023963              -0.001054729               0.999999985               0.000023159              -0.001069400               0.999999985               0.000024588              -0.001090111               0.999999985               0.000026822              -0.001115783               0.999999985               0.000029173              -0.001145420               0.999999985               0.000031213              -0.001178175               0.999999985               0.000032652              -0.001213266               0.999999985               0.000033139              -0.001250118               0.999999985               0.000032029              -0.001288146               0.999999985               0.000028679              -0.001326446               0.999999985               0.000022525              -0.001364274               0.999999985               0.000013030              -0.001401141               0.999999985              -0.000000743              -0.001436626               0.999999985              -0.000020095              -0.001470493               0.999999985               0.000038722              -0.001057385               0.999999985               0.000021593              -0.001069008               0.999999985               0.000013860              -0.001075956               0.999999985               0.000010796              -0.001086484               0.999999985               0.000010109              -0.001102403               0.999999985               0.000010638              -0.001123661               0.999999985               0.000011634              -0.001149689               0.999999985               0.000012799              -0.001179686               0.999999985               0.000013719              -0.001212904               0.999999985               0.000014451              -0.001248707               0.999999985               0.000014699              -0.001286588               0.999999985               0.000014090              -0.001326072               0.999999985               0.000012351              -0.001366222               0.999999985               0.000009084              -0.001406234               0.999999985               0.000003806              -0.001445585               0.999999985              -0.000004071              -0.001483741               0.999999985              -0.000015522              -0.001520167               0.999999985               0.000000000              -0.001062699               0.999999985              -0.000000000              -0.001077281               0.999999985              -0.000000000              -0.001085971               0.999999985              -0.000000000              -0.001097428               0.999999985               0.000000000              -0.001113906               0.999999985              -0.000000000              -0.001135473               0.999999985              -0.000000000              -0.001161590               0.999999985              -0.000000000              -0.001191753               0.999999985              -0.000000000              -0.001225173               0.999999985               0.000000000              -0.001261228               0.999999985              -0.000000000              -0.001299497               0.999999985              -0.000000000              -0.001339522               0.999999985              -0.000000000              -0.001380402               0.999999985               0.000000000              -0.001421292               0.999999985              -0.000000000              -0.001461645               0.999999985              -0.000000000              -0.001500842               0.999999985              -0.000000000              -0.001538276               0.999999985               0.000414984               0.000000000               0.999999985               0.000455803              -0.000000000               0.999999985               0.000474505              -0.000000000               0.999999985               0.000485620               0.000000000               0.999999985               0.000494639              -0.000000000               0.999999985               0.000503739               0.000000000               0.999999985               0.000513667              -0.000000000               0.999999985               0.000524499              -0.000000000               0.999999985               0.000536310              -0.000000000               0.999999985               0.000549032              -0.000000000               0.999999985               0.000562594               0.000000000               0.999999985               0.000576914               0.000000000               0.999999985               0.000591792               0.000000000               0.999999985               0.000606990               0.000000000               0.999999985               0.000622286               0.000000000               0.999999985               0.000637327               0.000000000               0.999999985               0.000651524               0.000000000               0.999999985               0.000412500               0.000103887               0.999999985               0.000450631               0.000086847               0.999999985               0.000467696               0.000080284               0.999999985               0.000477843               0.000079119               0.999999985               0.000486270               0.000080912               0.999999985               0.000494971               0.000084284               0.999999985               0.000504572               0.000088408               0.999999985               0.000515175               0.000092794               0.999999985               0.000526786               0.000097261               0.999999985               0.000539248               0.000101739               0.999999985               0.000552481               0.000106126               0.999999985               0.000566357               0.000109957               0.999999985               0.000580680               0.000112995               0.999999985               0.000595155               0.000115026               0.999999985               0.000609471               0.000115763               0.999999985               0.000623343               0.000114561               0.999999985               0.000636431               0.000110695               0.999999985               0.000405201               0.000206652               0.999999985               0.000435572               0.000172990               0.999999985               0.000448090               0.000160712               0.999999985               0.000455598               0.000159121               0.999999985               0.000462522               0.000163215               0.999999985               0.000470343               0.000170242               0.999999985               0.000479303               0.000178627               0.999999985               0.000489295               0.000187572               0.999999985               0.000500202               0.000196679               0.999999985               0.000511831               0.000205795               0.999999985               0.000523985               0.000214459               0.999999985               0.000536348               0.000222141               0.999999985               0.000548700               0.000228330               0.999999985               0.000560771               0.000232781               0.999999985               0.000572397               0.000234909               0.999999985               0.000583506               0.000233942               0.999999985               0.000593943               0.000228803               0.999999985               0.000393395               0.000307254               0.999999985               0.000411608               0.000257901               0.999999985               0.000417610               0.000241374               0.999999985               0.000421814               0.000240464               0.999999985               0.000427044               0.000247578               0.999999985               0.000433833               0.000258701               0.999999985               0.000442020               0.000271698               0.999999985               0.000451275               0.000285448               0.999999985               0.000461335               0.000299277               0.999999985               0.000471742               0.000312839               0.999999985               0.000482099               0.000325675               0.999999985               0.000492087               0.000337156               0.999999985               0.000501513               0.000346745               0.999999985               0.000510335               0.000354160               0.999999985               0.000518552               0.000358951               0.999999985               0.000526236               0.000360523               0.999999985               0.000533490               0.000358258               0.999999985               0.000377353               0.000404698               0.999999985               0.000380102               0.000341263               0.999999985               0.000379012               0.000322170               0.999999985               0.000380123               0.000323113               0.999999985               0.000383997               0.000333960               0.999999985               0.000390192               0.000349577               0.999999985               0.000397914               0.000367374               0.999999985               0.000406561               0.000386019               0.999999985               0.000415584               0.000404566               0.999999985               0.000424534               0.000422432               0.999999985               0.000432942               0.000439102               0.999999985               0.000440475               0.000454170               0.999999985               0.000447066               0.000467214               0.999999985               0.000452880               0.000478146               0.999999985               0.000458025               0.000486797               0.999999985               0.000462593               0.000492745               0.999999985               0.000466858               0.000496273               0.999999985               0.000357419               0.000497973               0.999999985               0.000342747               0.000422892               0.999999985               0.000335222               0.000402956               0.999999985               0.000334284               0.000406705               0.999999985               0.000337804               0.000421636               0.999999985               0.000344122               0.000441958               0.999999985               0.000351866               0.000464513               0.999999985               0.000360092               0.000487759               0.999999985               0.000368182               0.000510746               0.999999985               0.000375596               0.000532675               0.999999985               0.000381944               0.000553089               0.999999985               0.000387162               0.000571736               0.999999985               0.000391305               0.000588454               0.999999985               0.000394496               0.000603244               0.999999985               0.000396832               0.000616080               0.999999985               0.000398536               0.000627113               0.999999985               0.000399891               0.000636960               0.999999985               0.000333942               0.000586170               0.999999985               0.000301503               0.000502620               0.999999985               0.000289230               0.000483364               0.999999985               0.000287953               0.000490352               0.999999985               0.000292336               0.000509443               0.999999985               0.000299456               0.000534246               0.999999985               0.000307553               0.000561296               0.999999985               0.000315496               0.000588772               0.999999985               0.000322627               0.000615778               0.999999985               0.000328409               0.000641449               0.999999985               0.000332737               0.000665538               0.999999985               0.000335540               0.000687835               0.999999985               0.000337012               0.000708357               0.999999985               0.000337339               0.000727165               0.999999985               0.000336755               0.000744483               0.999999985               0.000335376               0.000760579               0.999999985               0.000333284               0.000775851               0.999999985               0.000307453               0.000668378               0.999999985               0.000258539               0.000580182               0.999999985               0.000243833               0.000562639               0.999999985               0.000243896               0.000572956               0.999999985               0.000250029               0.000595941               0.999999985               0.000258407               0.000624832               0.999999985               0.000266988               0.000656021               0.999999985               0.000274548               0.000687405               0.999999985               0.000280487               0.000718080               0.999999985               0.000284417               0.000747238               0.999999985               0.000286311               0.000774788               0.999999985               0.000286270               0.000800754               0.999999985               0.000284573               0.000825127               0.999999985               0.000281420               0.000848072               0.999999985               0.000277003               0.000869752               0.999999985               0.000271526               0.000890407               0.999999985               0.000265072               0.000910021               0.999999985               0.000279193               0.000743063               0.999999985               0.000215428               0.000655442               0.999999985               0.000201477               0.000639863               0.999999985               0.000204028               0.000653158               0.999999985               0.000212280               0.000679752               0.999999985               0.000221988               0.000712491               0.999999985               0.000230819               0.000747454               0.999999985               0.000237678               0.000782521               0.999999985               0.000241934               0.000816549               0.999999985               0.000243321               0.000849122               0.999999985               0.000242080               0.000880205               0.999999985               0.000238337               0.000909781               0.999999985               0.000232584               0.000937820               0.999999985               0.000225340               0.000964045               0.999999985               0.000216971               0.000988716               0.999999985               0.000207796               0.001012218               0.999999985               0.000197982               0.001034440               0.999999985               0.000250622               0.000813099               0.999999985               0.000180315               0.000736895               0.999999985               0.000163285               0.000716673               0.999999985               0.000164201               0.000724168               0.999999985               0.000171393               0.000745579               0.999999985               0.000180558               0.000774389               0.999999985               0.000189273               0.000806784               0.999999985               0.000196344               0.000840481               0.999999985               0.000201106               0.000873998               0.999999985               0.000203026               0.000906823               0.999999985               0.000202101               0.000938674               0.999999985               0.000198541               0.000969477               0.999999985               0.000192564               0.000998947               0.999999985               0.000184711               0.001026802               0.999999985               0.000175123               0.001053200               0.999999985               0.000164529               0.001078085               0.999999985               0.000153693               0.001101767               0.999999985               0.000219313               0.000876383               0.999999985               0.000148059               0.000814938               0.999999985               0.000127988               0.000794615               0.999999985               0.000126586               0.000798134               0.999999985               0.000132162               0.000815402               0.999999985               0.000140153               0.000840650               0.999999985               0.000148290               0.000870482               0.999999985               0.000155307               0.000902623               0.999999985               0.000160218               0.000935687               0.999999985               0.000162496               0.000968625               0.999999985               0.000162052               0.001000981               0.999999985               0.000158862               0.001032691               0.999999985               0.000152758               0.001063299               0.999999985               0.000144143               0.001092526               0.999999985               0.000133199               0.001120456               0.999999985               0.000120264               0.001147007               0.999999985               0.000106422               0.001172450               0.999999985               0.000186050               0.000931525               0.999999985               0.000118542               0.000887374               0.999999985               0.000096653               0.000870345               0.999999985               0.000092824               0.000872318               0.999999985               0.000096385               0.000886834               0.999999985               0.000102791               0.000909346               0.999999985               0.000109839               0.000936959               0.999999985               0.000116138               0.000967808               0.999999985               0.000120843               0.001000411               0.999999985               0.000123444               0.001033655               0.999999985               0.000123427               0.001066688               0.999999985               0.000120656               0.001099372               0.999999985               0.000114762               0.001131175               0.999999985               0.000105648               0.001161764               0.999999985               0.000093431               0.001191213               0.999999985               0.000078304               0.001219319               0.999999985               0.000060975               0.001246341               0.999999985               0.000151028               0.000977867               0.999999985               0.000091561               0.000951523               0.999999985               0.000069847               0.000940272               0.999999985               0.000064223               0.000942939               0.999999985               0.000065753               0.000956218               0.999999985               0.000070345               0.000977122               0.999999985               0.000075864               0.001003290               0.999999985               0.000080949               0.001033210               0.999999985               0.000084992               0.001065555               0.999999985               0.000087634               0.001099259               0.999999985               0.000088030               0.001133417               0.999999985               0.000085739               0.001167540               0.999999985               0.000080356               0.001201006               0.999999985               0.000071391               0.001233340               0.999999985               0.000058528               0.001264541               0.999999985               0.000041853               0.001294424               0.999999985               0.000021341               0.001323149               0.999999985               0.000114576               0.001014670               0.999999985               0.000066763               0.001004686               0.999999985               0.000047553               0.001000396               0.999999985               0.000041377               0.001005398               0.999999985               0.000041339               0.001018902               0.999999985               0.000044145               0.001039278               0.999999985               0.000047930               0.001064877               0.999999985               0.000051644               0.001094385               0.999999985               0.000054787               0.001126734               0.999999985               0.000056949               0.001161104               0.999999985               0.000057499               0.001196641               0.999999985               0.000055901               0.001232684               0.999999985               0.000051277               0.001268472               0.999999985               0.000043166               0.001303408               0.999999985               0.000031149               0.001337186               0.999999985               0.000014533               0.001369528               0.999999985              -0.000007507               0.001400534               0.999999985               0.000077039               0.001041309               0.999999985               0.000043646               0.001044439               0.999999985               0.000029242               0.001046707               0.999999985               0.000023963               0.001054729               0.999999985               0.000023159               0.001069400               0.999999985               0.000024588               0.001090111               0.999999985               0.000026822               0.001115783               0.999999985               0.000029173               0.001145420               0.999999985               0.000031213               0.001178175               0.999999985               0.000032652               0.001213266               0.999999985               0.000033139               0.001250118               0.999999985               0.000032029               0.001288146               0.999999985               0.000028679               0.001326446               0.999999985               0.000022525               0.001364274               0.999999985               0.000013030               0.001401141               0.999999985              -0.000000743               0.001436626               0.999999985              -0.000020095               0.001470493               0.999999985               0.000038722               0.001057385               0.999999985               0.000021593               0.001069008               0.999999985               0.000013860               0.001075956               0.999999985               0.000010796               0.001086484               0.999999985               0.000010109               0.001102403               0.999999985               0.000010638               0.001123661               0.999999985               0.000011634               0.001149689               0.999999985               0.000012799               0.001179686               0.999999985               0.000013719               0.001212904               0.999999985               0.000014451               0.001248707               0.999999985               0.000014699               0.001286588               0.999999985               0.000014090               0.001326072               0.999999985               0.000012351               0.001366222               0.999999985               0.000009084               0.001406234               0.999999985               0.000003806               0.001445585               0.999999985              -0.000004071               0.001483741               0.999999985              -0.000015522               0.001520167               0.999999985               0.000000000               0.001062699               0.999999985              -0.000000000               0.001077281               0.999999985               0.000000000               0.001085971               0.999999985               0.000000000               0.001097428               0.999999985              -0.000000000               0.001113906               0.999999985              -0.000000000               0.001135473               0.999999985              -0.000000000               0.001161590               0.999999985               0.000000000               0.001191753               0.999999985              -0.000000000               0.001225173               0.999999985               0.000000000               0.001261228               0.999999985              -0.000000000               0.001299497               0.999999985               0.000000000               0.001339522               0.999999985               0.000000000               0.001380402               0.999999985              -0.000000000               0.001421292               0.999999985               0.000000000               0.001461645               0.999999985               0.000000000               0.001500842               0.999999985              -0.000000000               0.001538276               0.999999985 </DataArray>
<DataArray type="Float64"                                    Name="defo"                                                      NumberOfComponents=" 3" format="ascii">
             -0.000414984               0.000000000               0.999999985              -0.000455803               0.000000000               0.999999985              -0.000474505               0.000000000               0.999999985              -0.000485620              -0.000000000               0.999999985              -0.000494639               0.000000000               0.999999985              -0.000503739               0.000000000               0.999999985              -0.000513667               0.000000000               0.999999985              -0.000524499               0.000000000               0.999999985              -0.000536310              -0.000000000               0.999999985              -0.000549032               0.000000000               0.999999985              -0.000562594               0.000000000               0.999999985              -0.000576914               0.000000000               0.999999985              -0.000591792               0.000000000               0.999999985              -0.000606990              -0.000000000               0.999999985              -0.000622286               0.000000000               0.999999985              -0.000637327               0.000000000               0.999999985              -0.000651524               0.000000000               0.999999985              -0.000412500               0.000103887               0.999999985              -0.000450631               0.000086847               0.999999985              -0.000467696               0.000080284               0.999999985              -0.000477843               0.000079119               0.999999985              -0.000486270               0.000080912               0.999999985              -0.000494971               0.000084284               0.999999985              -0.000504572               0.000088408               0.999999985              -0.000515175               0.000092794               0.999999985              -0.000526786               0.000097261               0.999999985              -0.000539248               0.000101739               0.999999985              -0.000552481               0.000106126               0.999999985              -0.000566357               0.000109957               0.999999985              -0.000580680               0.000112995               0.999999985              -0.000595155               0.000115026               0.999999985              -0.000609471               0.000115763               0.999999985              -0.000623343               0.000114561               0.999999985              -0.000636431               0.000110695               0.999999985              -0.000405201               0.000206652               0.999999985              -0.000435572               0.000172990               0.999999985              -0.000448090               0.000160712               0.999999985              -0.000455598               0.000159121               0.999999985              -0.000462522               0.000163215               0.999999985              -0.000470343               0.000170242               0.999999985              -0.000479303               0.000178627               0.999999985              -0.000489295               0.000187572               0.999999985              -0.000500202               0.000196679               0.999999985              -0.000511831               0.000205795               0.999999985              -0.000523985               0.000214459               0.999999985              -0.000536348               0.000222141               0.999999985              -0.000548700               0.000228330               0.999999985              -0.000560771               0.000232781               0.999999985              -0.000572397               0.000234909               0.999999985              -0.000583506               0.000233942               0.999999985              -0.000593943               0.000228803               0.999999985              -0.000393395               0.000307254               0.999999985              -0.000411608               0.000257901               0.999999985              -0.000417610               0.000241374               0.999999985              -0.000421814               0.000240464               0.999999985              -0.000427044               0.000247578               0.999999985              -0.000433833               0.000258701               0.999999985              -0.000442020               0.000271698               0.999999985              -0.000451275               0.000285448               0.999999985              -0.000461335               0.000299277               0.999999985              -0.000471742               0.000312839               0.999999985              -0.000482099               0.000325675               0.999999985              -0.000492087               0.000337156               0.999999985              -0.000501513               0.000346745               0.999999985              -0.000510335               0.000354160               0.999999985              -0.000518552               0.000358951               0.999999985              -0.000526236               0.000360523               0.999999985              -0.000533490               0.000358258               0.999999985              -0.000377353               0.000404698               0.999999985              -0.000380102               0.000341263               0.999999985              -0.000379012               0.000322170               0.999999985              -0.000380123               0.000323113               0.999999985              -0.000383997               0.000333960               0.999999985              -0.000390192               0.000349577               0.999999985              -0.000397914               0.000367374               0.999999985              -0.000406561               0.000386019               0.999999985              -0.000415584               0.000404566               0.999999985              -0.000424534               0.000422432               0.999999985              -0.000432942               0.000439102               0.999999985              -0.000440475               0.000454170               0.999999985              -0.000447066               0.000467214               0.999999985              -0.000452880               0.000478146               0.999999985              -0.000458025               0.000486797               0.999999985              -0.000462593               0.000492745               0.999999985              -0.000466858               0.000496273               0.999999985              -0.000357419               0.000497973               0.999999985              -0.000342747               0.000422892               0.999999985              -0.000335222               0.000402956               0.999999985              -0.000334284               0.000406705               0.999999985              -0.000337804               0.000421636               0.999999985              -0.000344122               0.000441958               0.999999985              -0.000351866               0.000464513               0.999999985              -0.000360092               0.000487759               0.999999985              -0.000368182               0.000510746               0.999999985              -0.000375596               0.000532675               0.999999985              -0.000381944               0.000553089               0.999999985              -0.000387162               0.000571736               0.999999985              -0.000391305               0.000588454               0.999999985              -0.000394496               0.000603244               0.999999985              -0.000396832               0.000616080               0.999999985              -0.000398536               0.000627113               0.999999985              -0.000399891               0.000636960               0.999999985              -0.000333942               0.000586170               0.999999985              -0.000301503               0.000502620               0.999999985              -0.000289230               0.000483364               0.999999985              -0.000287953               0.000490352               0.999999985              -0.000292336               0.000509443               0.999999985              -0.000299456               0.000534246               0.999999985              -0.000307553               0.000561296               0.999999985              -0.000315496               0.000588772               0.999999985              -0.000322627               0.000615778               0.999999985              -0.000328409               0.000641449               0.999999985              -0.000332737               0.000665538               0.999999985              -0.000335540               0.000687835               0.999999985              -0.000337012               0.000708357               0.999999985              -0.000337339               0.000727165               0.999999985              -0.000336755               0.000744483               0.999999985              -0.000335376               0.000760579               0.999999985              -0.000333284               0.000775851               0.999999985              -0.000307453               0.000668378               0.999999985              -0.000258539               0.000580182               0.999999985              -0.000243833               0.000562639               0.999999985              -0.000243896               0.000572956               0.999999985              -0.000250029               0.000595941               0.999999985              -0.000258407               0.000624832               0.999999985              -0.000266988               0.000656021               0.999999985              -0.000274548               0.000687405               0.999999985              -0.000280487               0.000718080               0.999999985              -0.000284417               0.000747238               0.999999985              -0.000286311               0.000774788               0.999999985              -0.000286270               0.000800754               0.999999985              -0.000284573               0.000825127               0.999999985              -0.000281420               0.000848072               0.999999985              -0.000277003               0.000869752               0.999999985              -0.000271526               0.000890407               0.999999985              -0.000265072               0.000910021               0.999999985              -0.000279193               0.000743063               0.999999985              -0.000215428               0.000655442               0.999999985              -0.000201477               0.000639863               0.999999985              -0.000204028               0.000653158               0.999999985              -0.000212280               0.000679752               0.999999985              -0.000221988               0.000712491               0.999999985              -0.000230819               0.000747454               0.999999985              -0.000237678               0.000782521               0.999999985              -0.000241934               0.000816549               0.999999985              -0.000243321               0.000849122               0.999999985              -0.000242080               0.000880205               0.999999985              -0.000238337               0.000909781               0.999999985              -0.000232584               0.000937820               0.999999985              -0.000225340               0.000964045               0.999999985              -0.000216971               0.000988716               0.999999985              -0.000207796               0.001012218               0.999999985              -0.000197982               0.001034440               0.999999985              -0.000250622               0.000813099               0.999999985              -0.000180315               0.000736895               0.999999985              -0.000163285               0.000716673               0.999999985              -0.000164201               0.000724168               0.999999985              -0.000171393               0.000745579               0.999999985              -0.000180558               0.000774389               0.999999985              -0.000189273               0.000806784               0.999999985              -0.000196344               0.000840481               0.999999985              -0.000201106               0.000873998               0.999999985              -0.000203026               0.000906823               0.999999985              -0.000202101               0.000938674               0.999999985              -0.000198541               0.000969477               0.999999985              -0.000192564               0.000998947               0.999999985              -0.000184711               0.001026802               0.999999985              -0.000175123               0.001053200               0.999999985              -0.000164529               0.001078085               0.999999985              -0.000153693               0.001101767               0.999999985              -0.000219313               0.000876383               0.999999985              -0.000148059               0.000814938               0.999999985              -0.000127988               0.000794615               0.999999985              -0.000126586               0.000798134               0.999999985              -0.000132162               0.000815402               0.999999985              -0.000140153               0.000840650               0.999999985              -0.000148290               0.000870482               0.999999985              -0.000155307               0.000902623               0.999999985              -0.000160218               0.000935687               0.999999985              -0.000162496               0.000968625               0.999999985              -0.000162052               0.001000981               0.999999985              -0.000158862               0.001032691               0.999999985              -0.000152758               0.001063299               0.999999985              -0.000144143               0.001092526               0.999999985              -0.000133199               0.001120456               0.999999985              -0.000120264               0.001147007               0.999999985              -0.000106422               0.001172450               0.999999985              -0.000186050               0.000931525               0.999999985              -0.000118542               0.000887374               0.999999985              -0.000096653               0.000870345               0.999999985              -0.000092824               0.000872318               0.999999985              -0.000096385               0.000886834               0.999999985              -0.000102791               0.000909346               0.999999985              -0.000109839               0.000936959               0.999999985              -0.000116138               0.000967808               0.999999985              -0.000120843               0.001000411               0.999999985              -0.000123444               0.001033655               0.999999985              -0.000123427               0.001066688               0.999999985              -0.000120656               0.001099372               0.999999985              -0.000114762               0.001131175               0.999999985              -0.000105648               0.001161764               0.999999985              -0.000093431               0.001191213               0.999999985              -0.000078304               0.001219319               0.999999985              -0.000060975               0.001246341               0.999999985              -0.000151028               0.000977867               0.999999985              -0.000091561               0.000951523               0.999999985              -0.000069847               0.000940272               0.999999985              -0.000064223               0.000942939               0.999999985              -0.000065753               0.000956218               0.999999985              -0.000070345               0.000977122               0.999999985              -0.000075864               0.001003290               0.999999985              -0.000080949               0.001033210               0.999999985              -0.000084992               0.001065555               0.999999985              -0.000087634               0.001099259               0.999999985              -0.000088030               0.001133417               0.999999985              -0.000085739               0.001167540               0.999999985              -0.000080356               0.001201006               0.999999985              -0.000071391               0.001233340               0.999999985              -0.000058528               0.001264541               0.999999985              -0.000041853               0.001294424               0.999999985              -0.000021341               0.001323149               0.999999985              -0.000114576               0.001014670               0.999999985              -0.000066763               0.001004686               0.999999985              -0.000047553               0.001000396               0.999999985              -0.000041377               0.001005398               0.999999985              -0.000041339               0.001018902               0.999999985              -0.000044145               0.001039278               0.999999985              -0.000047930               0.001064877               0.999999985              -0.000051644               0.001094385               0.999999985              -0.000054787               0.001126734               0.999999985              -0.000056949               0.001161104               0.999999985              -0.000057499               0.001196641               0.999999985              -0.000055901               0.001232684               0.999999985              -0.000051277               0.001268472               0.999999985              -0.000043166               0.001303408               0.999999985              -0.000031149               0.001337186               0.999999985              -0.000014533               0.001369528               0.999999985               0.000007507               0.001400534               0.999999985              -0.000077039               0.001041309               0.999999985              -0.000043646               0.001044439               0.999999985              -0.000029242               0.001046707               0.999999985              -0.000023963               0.001054729               0.999999985              -0.000023159               0.001069400               0.999999985              -0.000024588               0.001090111               0.999999985              -0.000026822               0.001115783               0.999999985              -0.000029173               0.001145420               0.999999985              -0.000031213               0.001178175               0.999999985              -0.000032652               0.001213266               0.999999985              -0.000033139               0.001250118               0.999999985              -0.000032029               0.001288146               0.999999985              -0.000028679               0.001326446               0.999999985              -0.000022525               0.001364274               0.999999985              -0.000013030               0.001401141               0.999999985               0.000000743               0.001436626               0.999999985               0.000020095               0.001470493               0.999999985              -0.000038722               0.001057385               0.999999985              -0.000021593               0.001069008               0.999999985              -0.000013860               0.001075956               0.999999985              -0.000010796               0.001086484               0.999999985              -0.000010109               0.001102403               0.999999985              -0.000010638               0.001123661               0.999999985              -0.000011634               0.001149689               0.999999985              -0.000012799               0.001179686               0.999999985              -0.000013719               0.001212904               0.999999985              -0.000014451               0.001248707               0.999999985              -0.000014699               0.001286588               0.999999985              -0.000014090               0.001326072               0.999999985              -0.000012351               0.001366222               0.999999985              -0.000009084               0.001406234               0.999999985              -0.000003806               0.001445585               0.999999985               0.000004071               0.001483741               0.999999985               0.000015522               0.001520167               0.999999985               0.000000000               0.001062699               0.999999985              -0.000000000               0.001077281               0.999999985               0.000000000               0.001085971               0.999999985               0.000000000               0.001097428               0.999999985              -0.000000000               0.001113906               0.999999985              -0.000000000               0.001135473               0.999999985              -0.000000000               0.001161590               0.999999985               0.000000000               0.001191753               0.999999985              -0.000000000               0.001225173               0.999999985               0.000000000               0.001261228               0.999999985              -0.000000000               0.001299497               0.999999985               0.000000000               0.001339522               0.999999985               0.000000000               0.001380402               0.999999985              -0.000000000               0.001421292               0.999999985               0.000000000               0.001461645               0.999999985               0.000000000               0.001500842               0.999999985              -0.000000000               0.001538276               0.999999985              -0.000414984               0.000000000               0.999999985              -0.000455803               0.000000000               0.999999985              -0.000474505               0.000000000               0.999999985              -0.000485620              -0.000000000               0.999999985              -0.000494639               0.000000000               0.999999985              -0.000503739               0.000000000               0.999999985              -0.000513667               0.000000000               0.999999985              -0.000524499               0.000000000               0.999999985              -0.000536310              -0.000000000               0.999999985              -0.000549032               0.000000000               0.999999985              -0.000562594               0.000000000               0.999999985              -0.000576914               0.000000000               0.999999985              -0.000591792               0.000000000               0.999999985              -0.000606990              -0.000000000               0.999999985              -0.000622286               0.000000000               0.999999985              -0.000637327               0.000000000               0.999999985              -0.000651524               0.000000000               0.999999985              -0.000412500              -0.000103887               0.999999985              -0.000450631              -0.000086847               0.999999985              -0.000467696              -0.000080284               0.999999985              -0.000477843              -0.000079119               0.999999985              -0.000486270              -0.000080912               0.999999985              -0.000494971              -0.000084284               0.999999985              -0.000504572              -0.000088408               0.999999985              -0.000515175              -0.000092794               0.999999985              -0.000526786              -0.000097261               0.999999985              -0.000539248              -0.000101739               0.999999985              -0.000552481              -0.000106126               0.999999985              -0.000566357              -0.000109957               0.999999985              -0.000580680              -0.000112995               0.999999985              -0.000595155              -0.000115026               0.999999985              -0.000609471              -0.000115763               0.999999985              -0.000623343              -0.000114561               0.999999985              -0.000636431              -0.000110695               0.999999985              -0.000405201              -0.000206652               0.999999985              -0.000435572              -0.000172990               0.999999985              -0.000448090              -0.000160712               0.999999985              -0.000455598              -0.000159121               0.999999985              -0.000462522              -0.000163215               0.999999985              -0.000470343              -0.000170242               0.999999985              -0.000479303              -0.000178627               0.999999985              -0.000489295              -0.000187572               0.999999985              -0.000500202              -0.000196679               0.999999985              -0.000511831              -0.000205795               0.999999985              -0.000523985              -0.000214459               0.999999985              -0.000536348              -0.000222141               0.999999985              -0.000548700              -0.000228330               0.999999985              -0.000560771              -0.000232781               0.999999985              -0.000572397              -0.000234909               0.999999985              -0.000583506              -0.000233942               0.999999985              -0.000593943              -0.000228803               0.999999985              -0.000393395              -0.000307254               0.999999985              -0.000411608              -0.000257901               0.999999985              -0.000417610              -0.000241374               0.999999985              -0.000421814              -0.000240464               0.999999985              -0.000427044              -0.000247578               0.999999985              -0.000433833              -0.000258701               0.999999985              -0.000442020              -0.000271698               0.999999985              -0.000451275              -0.000285448               0.999999985              -0.000461335              -0.000299277               0.999999985              -0.000471742              -0.000312839               0.999999985              -0.000482099              -0.000325675               0.999999985              -0.000492087              -0.000337156               0.999999985              -0.000501513              -0.000346745               0.999999985              -0.000510335              -0.000354160               0.999999985              -0.000518552              -0.000358951               0.999999985              -0.000526236              -0.000360523               0.999999985              -0.000533490              -0.000358258               0.999999985              -0.000377353              -0.000404698               0.999999985              -0.000380102              -0.000341263               0.999999985              -0.000379012              -0.000322170               0.999999985              -0.000380123              -0.000323113               0.999999985              -0.000383997              -0.000333960               0.999999985              -0.000390192              -0.000349577               0.999999985              -0.000397914              -0.000367374               0.999999985              -0.000406561              -0.000386019               0.999999985              -0.000415584              -0.000404566               0.999999985              -0.000424534              -0.000422432               0.999999985              -0.000432942              -0.000439102               0.999999985              -0.000440475              -0.000454170               0.999999985              -0.000447066              -0.000467214               0.999999985              -0.000452880              -0.000478146               0.999999985              -0.000458025              -0.000486797               0.999999985              -0.000462593              -0.000492745               0.999999985              -0.000466858              -0.000496273               0.999999985              -0.000357419              -0.000497973               0.999999985              -0.000342747              -0.000422892               0.999999985              -0.000335222              -0.000402956               0.999999985              -0.000334284              -0.000406705               0.999999985              -0.000337804              -0.000421636               0.999999985              -0.000344122              -0.000441958               0.999999985              -0.000351866              -0.000464513               0.999999985              -0.000360092              -0.000487759               0.999999985              -0.000368182              -0.000510746               0.999999985              -0.000375596              -0.000532675               0.999999985              -0.000381944              -0.000553089               0.999999985              -0.000387162              -0.000571736               0.999999985              -0.000391305              -0.000588454               0.999999985              -0.000394496              -0.000603244               0.999999985              -0.000396832              -0.000616080               0.999999985              -0.000398536              -0.000627113               0.999999985              -0.000399891              -0.000636960               0.999999985              -0.000333942              -0.000586170               0.999999985              -0.000301503              -0.000502620               0.999999985              -0.000289230              -0.000483364               0.999999985              -0.000287953              -0.000490352               0.999999985              -0.000292336              -0.000509443               0.999999985              -0.000299456              -0.000534246               0.999999985              -0.000307553              -0.000561296               0.999999985              -0.000315496              -0.000588772               0.999999985              -0.000322627              -0.000615778               0.999999985              -0.000328409              -0.000641449               0.999999985              -0.000332737              -0.000665538               0.999999985              -0.000335540              -0.000687835               0.999999985              -0.000337012              -0.000708357               0.999999985              -0.000337339              -0.000727165               0.999999985              -0.000336755              -0.000744483               0.999999985              -0.000335376              -0.000760579               0.999999985              -0.000333284              -0.000775851               0.999999985              -0.000307453              -0.000668378               0.999999985              -0.000258539              -0.000580182               0.999999985              -0.000243833              -0.000562639               0.999999985              -0.000243896              -0.000572956               0.999999985              -0.000250029              -0.000595941               0.999999985              -0.000258407              -0.000624832               0.999999985              -0.000266988              -0.000656021               0.999999985              -0.000274548              -0.000687405               0.999999985              -0.000280487              -0.000718080               0.999999985              -0.000284417              -0.000747238               0.999999985              -0.000286311              -0.000774788               0.999999985              -0.000286270              -0.000800754               0.999999985              -0.000284573              -0.000825127               0.999999985              -0.000281420              -0.000848072               0.999999985              -0.000277003              -0.000869752               0.999999985              -0.000271526              -0.000890407               0.999999985              -0.000265072              -0.000910021               0.999999985              -0.000279193              -0.000743063               0.999999985              -0.000215428              -0.000655442               0.999999985              -0.000201477              -0.000639863               0.999999985              -0.000204028              -0.000653158               0.999999985              -0.000212280              -0.000679752               0.999999985              -0.000221988              -0.000712491               0.999999985              -0.000230819              -0.000747454               0.999999985              -0.000237678              -0.000782521               0.999999985              -0.000241934              -0.000816549               0.999999985              -0.000243321              -0.000849122               0.999999985              -0.000242080              -0.000880205               0.999999985              -0.000238337              -0.000909781               0.999999985              -0.000232584              -0.000937820               0.999999985              -0.000225340              -0.000964045               0.999999985              -0.000216971              -0.000988716               0.999999985              -0.000207796              -0.001012218               0.999999985              -0.000197982              -0.001034440               0.999999985              -0.000250622              -0.000813099               0.999999985              -0.000180315              -0.000736895               0.999999985              -0.000163285              -0.000716673               0.999999985              -0.000164201              -0.000724168               0.999999985              -0.000171393              -0.000745579               0.999999985              -0.000180558              -0.000774389               0.999999985              -0.000189273              -0.000806784               0.999999985              -0.000196344              -0.000840481               0.999999985              -0.000201106              -0.000873998               0.999999985              -0.000203026              -0.000906823               0.999999985              -0.000202101              -0.000938674               0.999999985              -0.000198541              -0.000969477               0.999999985              -0.000192564              -0.000998947               0.999999985              -0.000184711              -0.001026802               0.999999985              -0.000175123              -0.001053200               0.999999985              -0.000164529              -0.001078085               0.999999985              -0.000153693              -0.001101767               0.999999985              -0.000219313              -0.000876383               0.999999985              -0.000148059              -0.000814938               0.999999985              -0.000127988              -0.000794615               0.999999985              -0.000126586              -0.000798134               0.999999985              -0.000132162              -0.000815402               0.999999985              -0.000140153              -0.000840650               0.999999985              -0.000148290              -0.000870482               0.999999985              -0.000155307              -0.000902623               0.999999985              -0.000160218              -0.000935687               0.999999985              -0.000162496              -0.000968625               0.999999985              -0.000162052              -0.001000981               0.999999985              -0.000158862              -0.001032691               0.999999985              -0.000152758              -0.001063299               0.999999985              -0.000144143              -0.001092526               0.999999985              -0.000133199              -0.001120456               0.999999985              -0.000120264              -0.001147007               0.999999985              -0.000106422              -0.001172450               0.999999985              -0.000186050              -0.000931525               0.999999985              -0.000118542              -0.000887374               0.999999985              -0.000096653              -0.000870345               0.999999985              -0.000092824              -0.000872318               0.999999985              -0.000096385              -0.000886834               0.999999985              -0.000102791              -0.000909346               0.999999985              -0.000109839              -0.000936959               0.999999985              -0.000116138              -0.000967808               0.999999985              -0.000120843              -0.001000411               0.999999985              -0.000123444              -0.001033655               0.999999985              -0.000123427              -0.001066688               0.999999985              -0.000120656              -0.001099372               0.999999985              -0.000114762              -0.001131175               0.999999985              -0.000105648              -0.001161764               0.999999985              -0.000093431              -0.001191213               0.999999985              -0.000078304              -0.001219319               0.999999985              -0.000060975              -0.001246341               0.999999985              -0.000151028              -0.000977867               0.999999985              -0.000091561              -0.000951523               0.999999985              -0.000069847              -0.000940272               0.999999985              -0.000064223              -0.000942939               0.999999985              -0.000065753              -0.000956218               0.999999985              -0.000070345              -0.000977122               0.999999985              -0.000075864              -0.001003290               0.999999985              -0.000080949              -0.001033210               0.999999985              -0.000084992              -0.001065555               0.999999985              -0.000087634              -0.001099259               0.999999985              -0.000088030              -0.001133417               0.999999985              -0.000085739              -0.001167540               0.999999985              -0.000080356              -0.001201006               0.999999985              -0.000071391              -0.001233340               0.999999985              -0.000058528              -0.001264541               0.999999985              -0.000041853              -0.001294424               0.999999985              -0.000021341              -0.001323149               0.999999985              -0.000114576              -0.001014670               0.999999985              -0.000066763              -0.001004686               0.999999985              -0.000047553              -0.001000396               0.999999985              -0.000041377              -0.001005398               0.999999985              -0.000041339              -0.001018902               0.999999985              -0.000044145              -0.001039278               0.999999985              -0.000047930              -0.001064877               0.999999985              -0.000051644              -0.001094385               0.999999985              -0.000054787              -0.001126734               0.999999985              -0.000056949              -0.001161104               0.999999985              -0.000057499              -0.001196641               0.999999985              -0.000055901              -0.001232684               0.999999985              -0.000051277              -0.001268472               0.999999985              -0.000043166              -0.001303408               0.999999985              -0.000031149              -0.001337186               0.999999985              -0.000014533              -0.001369528               0.999999985               0.000007507              -0.001400534               0.999999985              -0.000077039              -0.001041309               0.999999985              -0.000043646              -0.001044439               0.999999985              -0.000029242              -0.001046707               0.999999985              -0.000023963              -0.001054729               0.999999985              -0.000023159              -0.001069400               0.999999985              -0.000024588              -0.001090111               0.999999985              -0.000026822              -0.001115783               0.999999985              -0.000029173              -0.001145420               0.999999985              -0.000031213              -0.001178175               0.999999985              -0.000032652              -0.001213266               0.999999985              -0.000033139              -0.001250118               0.999999985              -0.000032029              -0.001288146               0.999999985              -0.000028679              -0.001326446               0.999999985              -0.000022525              -0.001364274               0.999999985              -0.000013030              -0.001401141               0.999999985               0.000000743              -0.001436626               0.999999985               0.000020095              -0.001470493               0.999999985              -0.000038722              -0.001057385               0.999999985              -0.000021593              -0.001069008               0.999999985              -0.000013860              -0.001075956               0.999999985              -0.000010796              -0.001086484               0.999999985              -0.000010109              -0.001102403               0.999999985              -0.000010638              -0.001123661               0.999999985              -0.000011634              -0.001149689               0.999999985              -0.000012799              -0.001179686               0.999999985              -0.000013719              -0.001212904               0.999999985              -0.000014451              -0.001248707               0.999999985              -0.000014699              -0.001286588               0.999999985              -0.000014090              -0.001326072               0.999999985              -0.000012351              -0.001366222               0.999999985              -0.000009084              -0.001406234               0.999999985              -0.000003806              -0.001445585               0.999999985               0.000004071              -0.001483741               0.999999985               0.000015522              -0.001520167               0.999999985               0.000000000              -0.001062699               0.999999985              -0.000000000              -0.001077281               0.999999985              -0.000000000              -0.001085971               0.999999985              -0.000000000              -0.001097428               0.999999985               0.000000000              -0.001113906               0.999999985              -0.000000000              -0.001135473               0.999999985              -0.000000000              -0.001161590               0.999999985              -0.000000000              -0.001191753               0.999999985              -0.000000000              -0.001225173               0.999999985               0.000000000              -0.001261228               0.999999985              -0.000000000              -0.001299497               0.999999985              -0.000000000              -0.001339522               0.999999985              -0.000000000              -0.001380402               0.999999985               0.000000000              -0.001421292               0.999999985              -0.000000000              -0.001461645               0.999999985              -0.000000000              -0.001500842               0.999999985              -0.000000000              -0.001538276               0.999999985               0.000414984               0.000000000               0.999999985               0.000455803              -0.000000000               0.999999985               0.000474505              -0.000000000               0.999999985               0.000485620               0.000000000               0.999999985               0.000494639              -0.000000000               0.999999985               0.000503739               0.000000000               0.999999985               0.000513667              -0.000000000               0.999999985               0.000524499              -0.000000000               0.999999985               0.000536310              -0.000000000               0.999999985               0.000549032              -0.000000000               0.999999985               0.000562594               0.000000000               0.999999985               0.000576914               0.000000000               0.999999985               0.000591792               0.000000000               0.999999985               0.000606990               0.000000000               0.999999985               0.000622286               0.000000000               0.999999985               0.000637327               0.000000000               0.999999985               0.000651524               0.000000000               0.999999985               0.000412500              -0.000103887               0.999999985               0.000450631              -0.000086847               0.999999985               0.000467696              -0.000080284               0.999999985               0.000477843              -0.000079119               0.999999985               0.000486270              -0.000080912               0.999999985               0.000494971              -0.000084284               0.999999985               0.000504572              -0.000088408               0.999999985               0.000515175              -0.000092794               0.999999985               0.000526786              -0.000097261               0.999999985               0.000539248              -0.000101739               0.999999985               0.000552481              -0.000106126               0.999999985               0.000566357              -0.000109957               0.999999985               0.000580680              -0.000112995               0.999999985               0.000595155              -0.000115026               0.999999985               0.000609471              -0.000115763               0.999999985               0.000623343              -0.000114561               0.999999985               0.000636431              -0.000110695               0.999999985               0.000405201              -0.000206652               0.999999985               0.000435572              -0.000172990               0.999999985               0.000448090              -0.000160712               0.999999985               0.000455598              -0.000159121               0.999999985               0.000462522              -0.000163215               0.999999985               0.000470343              -0.000170242               0.999999985               0.000479303              -0.000178627               0.999999985               0.000489295              -0.000187572               0.999999985               0.000500202              -0.000196679               0.999999985               0.000511831              -0.000205795               0.999999985               0.000523985              -0.000214459               0.999999985               0.000536348              -0.000222141               0.999999985               0.000548700              -0.000228330               0.999999985               0.000560771              -0.000232781               0.999999985               0.000572397              -0.000234909               0.999999985               0.000583506              -0.000233942               0.999999985               0.000593943              -0.000228803               0.999999985               0.000393395              -0.000307254               0.999999985               0.000411608              -0.000257901               0.999999985               0.000417610              -0.000241374               0.999999985               0.000421814              -0.000240464               0.999999985               0.000427044              -0.000247578               0.999999985               0.000433833              -0.000258701               0.999999985               0.000442020              -0.000271698               0.999999985               0.000451275              -0.000285448               0.999999985               0.000461335              -0.000299277               0.999999985               0.000471742              -0.000312839               0.999999985               0.000482099              -0.000325675               0.999999985               0.000492087              -0.000337156               0.999999985               0.000501513              -0.000346745               0.999999985               0.000510335              -0.000354160               0.999999985               0.000518552              -0.000358951               0.999999985               0.000526236              -0.000360523               0.999999985               0.000533490              -0.000358258               0.999999985               0.000377353              -0.000404698               0.999999985               0.000380102              -0.000341263               0.999999985               0.000379012              -0.000322170               0.999999985               0.000380123              -0.000323113               0.999999985               0.000383997              -0.000333960               0.999999985               0.000390192              -0.000349577               0.999999985               0.000397914              -0.000367374               0.999999985               0.000406561              -0.000386019               0.999999985               0.000415584              -0.000404566               0.999999985               0.000424534              -0.000422432               0.999999985               0.000432942              -0.000439102               0.999999985               0.000440475              -0.000454170               0.999999985               0.000447066              -0.000467214               0.999999985               0.000452880              -0.000478146               0.999999985               0.000458025              -0.000486797               0.999999985               0.000462593              -0.000492745               0.999999985               0.000466858              -0.000496273               0.999999985               0.000357419              -0.000497973               0.999999985               0.000342747              -0.000422892               0.999999985               0.000335222              -0.000402956               0.999999985               0.000334284              -0.000406705               0.999999985               0.000337804              -0.000421636               0.999999985               0.000344122              -0.000441958               0.999999985               0.000351866              -0.000464513               0.999999985               0.000360092              -0.000487759               0.999999985               0.000368182              -0.000510746               0.999999985               0.000375596              -0.000532675               0.999999985               0.000381944              -0.000553089               0.999999985               0.000387162              -0.000571736               0.999999985               0.000391305              -0.000588454               0.999999985               0.000394496              -0.000603244               0.999999985               0.000396832              -0.000616080               0.999999985               0.000398536              -0.000627113               0.999999985               0.000399891              -0.000636960               0.999999985               0.000333942              -0.000586170               0.999999985               0.000301503              -0.000502620               0.999999985               0.000289230              -0.000483364               0.999999985               0.000287953              -0.000490352               0.999999985               0.000292336              -0.000509443               0.999999985               0.000299456              -0.000534246               0.999999985               0.000307553              -0.000561296               0.999999985               0.000315496              -0.000588772               0.999999985               0.000322627              -0.000615778               0.999999985               0.000328409              -0.000641449               0.999999985               0.000332737              -0.000665538               0.999999985               0.000335540              -0.000687835               0.999999985               0.000337012              -0.000708357               0.999999985               0.000337339              -0.000727165               0.999999985               0.000336755              -0.000744483               0.999999985               0.000335376              -0.000760579               0.999999985               0.000333284              -0.000775851               0.999999985               0.000307453              -0.000668378               0.999999985               0.000258539              -0.000580182               0.999999985               0.000243833              -0.000562639               0.999999985               0.000243896              -0.000572956               0.999999985               0.000250029              -0.000595941               0.999999985               0.000258407              -0.000624832               0.999999985               0.000266988              -0.000656021               0.999999985               0.000274548              -0.000687405               0.999999985               0.000280487              -0.000718080               0.999999985               0.000284417              -0.000747238               0.999999985               0.000286311              -0.000774788               0.999999985               0.000286270              -0.000800754               0.999999985               0.000284573              -0.000825127               0.999999985               0.000281420              -0.000848072               0.999999985               0.000277003              -0.000869752               0.999999985               0.000271526              -0.000890407               0.999999985               0.000265072              -0.000910021               0.999999985               0.000279193              -0.000743063               0.999999985               0.000215428              -0.000655442               0.999999985               0.000201477              -0.000639863               0.999999985               0.000204028              -0.000653158               0.999999985               0.000212280              -0.000679752               0.999999985               0.000221988              -0.000712491               0.999999985               0.000230819              -0.000747454               0.999999985               0.000237678              -0.000782521               0.999999985               0.000241934              -0.000816549               0.999999985               0.000243321              -0.000849122               0.999999985               0.000242080              -0.000880205               0.999999985               0.000238337              -0.000909781               0.999999985               0.000232584              -0.000937820               0.999999985               0.000225340              -0.000964045               0.999999985               0.000216971              -0.000988716               0.999999985               0.000207796              -0.001012218               0.999999985               0.000197982              -0.001034440               0.999999985               0.000250622              -0.000813099               0.999999985               0.000180315              -0.000736895               0.999999985               0.000163285              -0.000716673               0.999999985               0.000164201              -0.000724168               0.999999985               0.000171393              -0.000745579               0.999999985               0.000180558              -0.000774389               0.999999985               0.000189273              -0.000806784               0.999999985               0.000196344              -0.000840481               0.999999985               0.000201106              -0.000873998               0.999999985               0.000203026              -0.000906823               0.999999985               0.000202101              -0.000938674               0.999999985               0.000198541              -0.000969477               0.999999985               0.000192564              -0.000998947               0.999999985               0.000184711              -0.001026802               0.999999985               0.000175123              -0.001053200               0.999999985               0.000164529              -0.001078085               0.999999985               0.000153693              -0.001101767               0.999999985               0.000219313              -0.000876383               0.999999985               0.000148059              -0.000814938               0.999999985               0.000127988              -0.000794615               0.999999985               0.000126586              -0.000798134               0.999999985               0.000132162              -0.000815402               0.999999985               0.000140153              -0.000840650               0.999999985               0.000148290              -0.000870482               0.999999985               0.000155307              -0.000902623               0.999999985               0.000160218              -0.000935687               0.999999985               0.000162496              -0.000968625               0.999999985               0.000162052              -0.001000981               0.999999985               0.000158862              -0.001032691               0.999999985               0.000152758              -0.001063299               0.999999985               0.000144143              -0.001092526               0.999999985               0.000133199              -0.001120456               0.999999985               0.000120264              -0.001147007               0.999999985               0.000106422              -0.001172450               0.999999985               0.000186050              -0.000931525               0.999999985               0.000118542              -0.000887374               0.999999985               0.000096653              -0.000870345               0.999999985               0.000092824              -0.000872318               0.999999985               0.000096385              -0.000886834               0.999999985               0.000102791              -0.000909346               0.999999985               0.000109839              -0.000936959               0.999999985               0.000116138              -0.000967808               0.999999985               0.000120843              -0.001000411               0.999999985               0.000123444              -0.001033655               0.999999985               0.000123427              -0.001066688               0.999999985               0.000120656              -0.001099372               0.999999985               0.000114762              -0.001131175               0.999999985               0.000105648              -0.001161764               0.999999985               0.000093431              -0.001191213               0.999999985               0.000078304              -0.001219319               0.999999985               0.000060975              -0.001246341               0.999999985               0.000151028              -0.000977867               0.999999985               0.000091561              -0.000951523               0.999999985               0.000069847              -0.000940272               0.999999985               0.000064223              -0.000942939               0.999999985               0.000065753              -0.000956218               0.999999985               0.000070345              -0.000977122               0.999999985               0.000075864              -0.001003290               0.999999985               0.000080949              -0.001033210               0.999999985               0.000084992              -0.001065555               0.999999985               0.000087634              -0.001099259               0.999999985               0.000088030              -0.001133417               0.999999985               0.000085739              -0.001167540               0.999999985               0.000080356              -0.001201006               0.999999985               0.000071391              -0.001233340               0.999999985               0.000058528              -0.001264541               0.999999985               0.000041853              -0.001294424               0.999999985               0.000021341              -0.001323149               0.999999985               0.000114576              -0.001014670               0.999999985               0.000066763              -0.001004686               0.999999985               0.000047553              -0.001000396               0.999999985               0.000041377              -0.001005398               0.999999985               0.000041339              -0.001018902               0.999999985               0.000044145              -0.001039278               0.999999985               0.000047930              -0.001064877               0.999999985               0.000051644              -0.001094385               0.999999985               0.000054787              -0.001126734               0.999999985               0.000056949              -0.001161104               0.999999985               0.000057499              -0.001196641               0.999999985               0.000055901              -0.001232684               0.999999985               0.000051277              -0.001268472               0.999999985               0.000043166              -0.001303408               0.999999985               0.000031149              -0.001337186               0.999999985               0.000014533              -0.001369528               0.999999985              -0.000007507              -0.001400534               0.999999985               0.000077039              -0.001041309               0.999999985               0.000043646              -0.001044439               0.999999985               0.000029242              -0.001046707               0.999999985               0.000023963              -0.001054729               0.999999985               0.000023159              -0.001069400               0.999999985               0.000024588              -0.001090111               0.999999985               0.000026822              -0.001115783               0.999999985               0.000029173              -0.001145420               0.999999985               0.000031213              -0.001178175               0.999999985               0.000032652              -0.001213266               0.999999985               0.000033139              -0.001250118               0.999999985               0.000032029              -0.001288146               0.999999985               0.000028679              -0.001326446               0.999999985               0.000022525              -0.001364274               0.999999985               0.000013030              -0.001401141               0.999999985              -0.000000743              -0.001436626               0.999999985              -0.000020095              -0.001470493               0.999999985               0.000038722              -0.001057385               0.999999985               0.000021593              -0.001069008               0.999999985               0.000013860              -0.001075956               0.999999985               0.000010796              -0.001086484               0.999999985               0.000010109              -0.001102403               0.999999985               0.000010638              -0.001123661               0.999999985               0.000011634              -0.001149689               0.999999985               0.000012799              -0.001179686               0.999999985               0.000013719              -0.001212904               0.999999985               0.000014451              -0.001248707               0.999999985               0.000014699              -0.001286588               0.999999985               0.000014090              -0.001326072               0.999999985               0.000012351              -0.001366222               0.999999985               0.000009084              -0.001406234               0.999999985               0.000003806              -0.001445585               0.999999985              -0.000004071              -0.001483741               0.999999985              -0.000015522              -0.001520167               0.999999985               0.000000000              -0.001062699               0.999999985              -0.000000000              -0.001077281               0.999999985              -0.000000000              -0.001085971               0.999999985              -0.000000000              -0.001097428               0.999999985               0.000000000              -0.001113906               0.999999985              -0.000000000              -0.001135473               0.999999985              -0.000000000              -0.001161590               0.999999985              -0.000000000              -0.001191753               0.999999985              -0.000000000              -0.001225173               0.999999985               0.000000000              -0.001261228               0.999999985              -0.000000000              -0.001299497               0.999999985              -0.000000000              -0.001339522               0.999999985              -0.000000000              -0.001380402               0.999999985               0.000000000              -0.001421292               0.999999985              -0.000000000              -0.001461645               0.999999985              -0.000000000              -0.001500842               0.999999985              -0.000000000              -0.001538276               0.999999985               0.000414984               0.000000000               0.999999985               0.000455803              -0.000000000               0.999999985               0.000474505              -0.000000000               0.999999985               0.000485620               0.000000000               0.999999985               0.000494639              -0.000000000               0.999999985               0.000503739               0.000000000               0.999999985               0.000513667              -0.000000000               0.999999985               0.000524499              -0.000000000               0.999999985               0.000536310              -0.000000000               0.999999985               0.000549032              -0.000000000               0.999999985               0.000562594               0.000000000               0.999999985               0.000576914               0.000000000               0.999999985               0.000591792               0.000000000               0.999999985               0.000606990               0.000000000               0.999999985               0.000622286               0.000000000               0.999999985               0.000637327               0.000000000               0.999999985               0.000651524               0.000000000               0.999999985               0.000412500               0.000103887               0.999999985               0.000450631               0.000086847               0.999999985               0.000467696               0.000080284               0.999999985               0.000477843               0.000079119               0.999999985               0.000486270               0.000080912               0.999999985               0.000494971               0.000084284               0.999999985               0.000504572               0.000088408               0.999999985               0.000515175               0.000092794               0.999999985               0.000526786               0.000097261               0.999999985               0.000539248               0.000101739               0.999999985               0.000552481               0.000106126               0.999999985               0.000566357               0.000109957               0.999999985               0.000580680               0.000112995               0.999999985               0.000595155               0.000115026               0.999999985               0.000609471               0.000115763               0.999999985               0.000623343               0.000114561               0.999999985               0.000636431               0.000110695               0.999999985               0.000405201               0.000206652               0.999999985               0.000435572               0.000172990               0.999999985               0.000448090               0.000160712               0.999999985               0.000455598               0.000159121               0.999999985               0.000462522               0.000163215               0.999999985               0.000470343               0.000170242               0.999999985               0.000479303               0.000178627               0.999999985               0.000489295               0.000187572               0.999999985               0.000500202               0.000196679               0.999999985               0.000511831               0.000205795               0.999999985               0.000523985               0.000214459               0.999999985               0.000536348               0.000222141               0.999999985               0.000548700               0.000228330               0.999999985               0.000560771               0.000232781               0.999999985               0.000572397               0.000234909               0.999999985               0.000583506               0.000233942               0.999999985               0.000593943               0.000228803               0.999999985               0.000393395               0.000307254               0.999999985               0.000411608               0.000257901               0.999999985               0.000417610               0.000241374               0.999999985               0.000421814               0.000240464               0.999999985               0.000427044               0.000247578               0.999999985               0.000433833               0.000258701               0.999999985               0.000442020               0.000271698               0.999999985               0.000451275               0.000285448               0.999999985               0.000461335               0.000299277               0.999999985               0.000471742               0.000312839               0.999999985               0.000482099               0.000325675               0.999999985               0.000492087               0.000337156               0.999999985               0.000501513               0.000346745               0.999999985               0.000510335               0.000354160               0.999999985               0.000518552               0.000358951               0.999999985               0.000526236               0.000360523               0.999999985               0.000533490               0.000358258               0.999999985               0.000377353               0.000404698               0.999999985               0.000380102               0.000341263               0.999999985               0.000379012               0.000322170               0.999999985               0.000380123               0.000323113               0.999999985               0.000383997               0.000333960               0.999999985               0.000390192               0.000349577               0.999999985               0.000397914               0.000367374               0.999999985               0.000406561               0.000386019               0.999999985               0.000415584               0.000404566               0.999999985               0.000424534               0.000422432               0.999999985               0.000432942               0.000439102               0.999999985               0.000440475               0.000454170               0.999999985               0.000447066               0.000467214               0.999999985               0.000452880               0.000478146               0.999999985               0.000458025               0.000486797               0.999999985               0.000462593               0.000492745               0.999999985               0.000466858               0.000496273               0.999999985               0.000357419               0.000497973               0.999999985               0.000342747               0.000422892               0.999999985               0.000335222               0.000402956               0.999999985               0.000334284               0.000406705               0.999999985               0.000337804               0.000421636               0.999999985               0.000344122               0.000441958               0.999999985               0.000351866               0.000464513               0.999999985               0.000360092               0.000487759               0.999999985               0.000368182               0.000510746               0.999999985               0.000375596               0.000532675               0.999999985               0.000381944               0.000553089               0.999999985               0.000387162               0.000571736               0.999999985               0.000391305               0.000588454               0.999999985               0.000394496               0.000603244               0.999999985               0.000396832               0.000616080               0.999999985               0.000398536               0.000627113               0.999999985               0.000399891               0.000636960               0.999999985               0.000333942               0.000586170               0.999999985               0.000301503               0.000502620               0.999999985               0.000289230               0.000483364               0.999999985               0.000287953               0.000490352               0.999999985               0.000292336               0.000509443               0.999999985               0.000299456               0.000534246               0.999999985               0.000307553               0.000561296               0.999999985               0.000315496               0.000588772               0.999999985               0.000322627               0.000615778               0.999999985               0.000328409               0.000641449               0.999999985               0.000332737               0.000665538               0.999999985               0.000335540               0.000687835               0.999999985               0.000337012               0.000708357               0.999999985               0.000337339               0.000727165               0.999999985               0.000336755               0.000744483               0.999999985               0.000335376               0.000760579               0.999999985               0.000333284               0.000775851               0.999999985               0.000307453               0.000668378               0.999999985               0.000258539               0.000580182               0.999999985               0.000243833               0.000562639               0.999999985               0.000243896               0.000572956               0.999999985               0.000250029               0.000595941               0.999999985               0.000258407               0.000624832               0.999999985               0.000266988               0.000656021               0.999999985               0.000274548               0.000687405               0.999999985               0.000280487               0.000718080               0.999999985               0.000284417               0.000747238               0.999999985               0.000286311               0.000774788               0.999999985               0.000286270               0.000800754               0.999999985               0.000284573               0.000825127               0.999999985               0.000281420               0.000848072               0.999999985               0.000277003               0.000869752               0.999999985               0.000271526               0.000890407               0.999999985               0.000265072               0.000910021               0.999999985               0.000279193               0.000743063               0.999999985               0.000215428               0.000655442               0.999999985               0.000201477               0.000639863               0.999999985               0.000204028               0.000653158               0.999999985               0.000212280               0.000679752               0.999999985               0.000221988               0.000712491               0.999999985               0.000230819               0.000747454               0.999999985               0.000237678               0.000782521               0.999999985               0.000241934               0.000816549               0.999999985               0.000243321               0.000849122               0.999999985               0.000242080               0.000880205               0.999999985               0.000238337               0.000909781               0.999999985               0.000232584               0.000937820               0.999999985               0.000225340               0.000964045               0.999999985               0.000216971               0.000988716               0.999999985               0.000207796               0.001012218               0.999999985               0.000197982               0.001034440               0.999999985               0.000250622               0.000813099               0.999999985               0.000180315               0.000736895               0.999999985               0.000163285               0.000716673               0.999999985               0.000164201               0.000724168               0.999999985               0.000171393               0.000745579               0.999999985               0.000180558               0.000774389               0.999999985               0.000189273               0.000806784               0.999999985               0.000196344               0.000840481               0.999999985               0.000201106               0.000873998               0.999999985               0.000203026               0.000906823               0.999999985               0.000202101               0.000938674               0.999999985               0.000198541               0.000969477               0.999999985               0.000192564               0.000998947               0.999999985               0.000184711               0.001026802               0.999999985               0.000175123               0.001053200               0.999999985               0.000164529               0.001078085               0.999999985               0.000153693               0.001101767               0.999999985               0.000219313               0.000876383               0.999999985               0.000148059               0.000814938               0.999999985               0.000127988               0.000794615               0.999999985               0.000126586               0.000798134               0.999999985               0.000132162               0.000815402               0.999999985               0.000140153               0.000840650               0.999999985               0.000148290               0.000870482               0.999999985               0.000155307               0.000902623               0.999999985               0.000160218               0.000935687               0.999999985               0.000162496               0.000968625               0.999999985               0.000162052               0.001000981               0.999999985               0.000158862               0.001032691               0.999999985               0.000152758               0.001063299               0.999999985               0.000144143               0.001092526               0.999999985               0.000133199               0.001120456               0.999999985               0.000120264               0.001147007               0.999999985               0.000106422               0.001172450               0.999999985               0.000186050               0.000931525               0.999999985               0.000118542               0.000887374               0.999999985               0.000096653               0.000870345               0.999999985               0.000092824               0.000872318               0.999999985               0.000096385               0.000886834               0.999999985               0.000102791               0.000909346               0.999999985               0.000109839               0.000936959               0.999999985               0.000116138               0.000967808               0.999999985               0.000120843               0.001000411               0.999999985               0.000123444               0.001033655               0.999999985               0.000123427               0.001066688               0.999999985               0.000120656               0.001099372               0.999999985               0.000114762               0.001131175               0.999999985               0.000105648               0.001161764               0.999999985               0.000093431               0.001191213               0.999999985               0.000078304               0.001219319               0.999999985               0.000060975               0.001246341               0.999999985               0.000151028               0.000977867               0.999999985               0.000091561               0.000951523               0.999999985               0.000069847               0.000940272               0.999999985               0.000064223               0.000942939               0.999999985               0.000065753               0.000956218               0.999999985               0.000070345               0.000977122               0.999999985               0.000075864               0.001003290               0.999999985               0.000080949               0.001033210               0.999999985               0.000084992               0.001065555               0.999999985               0.000087634               0.001099259               0.999999985               0.000088030               0.001133417               0.999999985               0.000085739               0.001167540               0.999999985               0.000080356               0.001201006               0.999999985               0.000071391               0.001233340               0.999999985               0.000058528               0.001264541               0.999999985               0.000041853               0.001294424               0.999999985               0.000021341               0.001323149               0.999999985               0.000114576               0.001014670               0.999999985               0.000066763               0.001004686               0.999999985               0.000047553               0.001000396               0.999999985               0.000041377               0.001005398               0.999999985               0.000041339               0.001018902               0.999999985               0.000044145               0.001039278               0.999999985               0.000047930               0.001064877               0.999999985               0.000051644               0.001094385               0.999999985               0.000054787               0.001126734               0.999999985               0.000056949               0.001161104               0.999999985               0.000057499               0.001196641               0.999999985               0.000055901               0.001232684               0.999999985               0.000051277               0.001268472               0.999999985               0.000043166               0.001303408               0.999999985               0.000031149               0.001337186               0.999999985               0.000014533               0.001369528               0.999999985              -0.000007507               0.001400534               0.999999985               0.000077039               0.001041309               0.999999985               0.000043646               0.001044439               0.999999985               0.000029242               0.001046707               0.999999985               0.000023963               0.001054729               0.999999985               0.000023159               0.001069400               0.999999985               0.000024588               0.001090111               0.999999985               0.000026822               0.001115783               0.999999985               0.000029173               0.001145420               0.999999985               0.000031213               0.001178175               0.999999985               0.000032652               0.001213266               0.999999985               0.000033139               0.001250118               0.999999985               0.000032029               0.001288146               0.999999985               0.000028679               0.001326446               0.999999985               0.000022525               0.001364274               0.999999985               0.000013030               0.001401141               0.999999985              -0.000000743               0.001436626               0.999999985              -0.000020095               0.001470493               0.999999985               0.000038722               0.001057385               0.999999985               0.000021593               0.001069008               0.999999985               0.000013860               0.001075956               0.999999985               0.000010796               0.001086484               0.999999985               0.000010109               0.001102403               0.999999985               0.000010638               0.001123661               0.999999985               0.000011634               0.001149689               0.999999985               0.000012799               0.001179686               0.999999985               0.000013719               0.001212904               0.999999985               0.000014451               0.001248707               0.999999985               0.000014699               0.001286588               0.999999985               0.000014090               0.001326072               0.999999985               0.000012351               0.001366222               0.999999985               0.000009084               0.001406234               0.999999985               0.000003806               0.001445585               0.999999985              -0.000004071               0.001483741               0.999999985              -0.000015522               0.001520167               0.999999985               0.000000000               0.001062699               0.999999985              -0.000000000               0.001077281               0.999999985               0.000000000               0.001085971               0.999999985               0.000000000               0.001097428               0.999999985              -0.000000000               0.001113906               0.999999985              -0.000000000               0.001135473               0.999999985              -0.000000000               0.001161590               0.999999985               0.000000000               0.001191753               0.999999985              -0.000000000               0.001225173               0.999999985               0.000000000               0.001261228               0.999999985              -0.000000000               0.001299497               0.999999985               0.000000000               0.001339522               0.999999985               0.000000000               0.001380402               0.999999985              -0.000000000               0.001421292               0.999999985               0.000000000               0.001461645               0.999999985               0.000000000               0.001500842               0.999999985              -0.000000000               0.001538276               0.999999985 </DataArray>
<DataArray type="Float64"                                    Name="stress"                                                      NumberOfComponents="10" format="ascii">
              0.001716231               0.019123014               0.000000000              -0.001746786               0.006956536               0.005209750               0.000000000               0.000000000               0.000000000               0.000000000               0.001737175               0.015186128               0.000000000              -0.001246822               0.005477600               0.004230777               0.000000000               0.000000000               0.000000000               0.000000000               0.002306297               0.012013958               0.000000000              -0.000636882               0.004216907               0.003580025               0.000000000               0.000000000               0.000000000               0.000000000               0.002243551               0.010253819               0.000000000              -0.000440395               0.003564704               0.003124309               0.000000000               0.000000000               0.000000000               0.000000000               0.001987461               0.009178828              -0.000000000              -0.000402055               0.003193597               0.002791542               0.000000000               0.000000000               0.000000000               0.000000000               0.001690878               0.008460154              -0.000000000              -0.000423439               0.002961169               0.002537730               0.000000000               0.000000000               0.000000000               0.000000000               0.001414982               0.007937362              -0.000000000              -0.000461551               0.002799611               0.002338060               0.000000000               0.000000000               0.000000000               0.000000000               0.001167843               0.007524793              -0.000000000              -0.000502657               0.002675791               0.002173135               0.000000000               0.000000000               0.000000000               0.000000000               0.000946536               0.007181816               0.000000000              -0.000542775               0.002574840               0.002032065               0.000000000               0.000000000               0.000000000               0.000000000               0.000751200               0.006888514               0.000000000              -0.000579363               0.002489269               0.001909907               0.000000000               0.000000000               0.000000000               0.000000000               0.000575106               0.006624450               0.000000000              -0.000612390               0.002412258               0.001799868               0.000000000               0.000000000               0.000000000               0.000000000               0.000417149               0.006364034               0.000000000              -0.000639072               0.002334347               0.001695276               0.000000000               0.000000000               0.000000000               0.000000000               0.000282485               0.006095043              -0.000000000              -0.000655947               0.002250310               0.001594363               0.000000000               0.000000000               0.000000000               0.000000000               0.000171124               0.005808768              -0.000000000              -0.000661923               0.002156877               0.001494955               0.000000000               0.000000000               0.000000000               0.000000000               0.000083580               0.005493739               0.000000000              -0.000655373               0.002049686               0.001394313               0.000000000               0.000000000               0.000000000               0.000000000               0.000028886               0.005131829               0.000000000              -0.000630645               0.001920808               0.001290163               0.000000000               0.000000000               0.000000000               0.000000000              -0.000017901               0.004852072               0.000000000              -0.000613220               0.001821748               0.001208527               0.000000000               0.000000000               0.000000000               0.000000000               0.001786486               0.018741924              -0.001323185              -0.001672805               0.006804847               0.005132043               0.000000000               0.000000000               0.000000000               0.000000000               0.001715714               0.014934955              -0.000701411              -0.001223474               0.005386093               0.004162619               0.000000000               0.000000000               0.000000000               0.000000000               0.002188212               0.011902864              -0.000079960              -0.000667277               0.004190007               0.003522731               0.000000000               0.000000000               0.000000000               0.000000000               0.002088880               0.010217312               0.000186319              -0.000493833               0.003570348               0.003076515               0.000000000               0.000000000               0.000000000               0.000000000               0.001824053               0.009179471               0.000296611              -0.000463413               0.003214264               0.002750851               0.000000000               0.000000000               0.000000000               0.000000000               0.001532800               0.008477293               0.000333370              -0.000484860               0.002987356               0.002502496               0.000000000               0.000000000               0.000000000               0.000000000               0.001266275               0.007960853               0.000336291              -0.000520252               0.002827009               0.002306756               0.000000000               0.000000000               0.000000000               0.000000000               0.001030167               0.007553228               0.000325865              -0.000557840               0.002703664               0.002145824               0.000000000               0.000000000               0.000000000               0.000000000               0.000823580               0.007215793               0.000313398              -0.000593130               0.002602950               0.002009820               0.000000000               0.000000000               0.000000000               0.000000000               0.000644345               0.006926311               0.000300984              -0.000624158               0.002516800               0.001892642               0.000000000               0.000000000               0.000000000               0.000000000               0.000484809               0.006661195               0.000282795              -0.000650844               0.002437324               0.001786480               0.000000000               0.000000000               0.000000000               0.000000000               0.000344714               0.006402396               0.000258211              -0.000671030               0.002357787               0.001686757               0.000000000               0.000000000               0.000000000               0.000000000               0.000228319               0.006139150               0.000231564              -0.000681773               0.002273621               0.001591848               0.000000000               0.000000000               0.000000000               0.000000000               0.000138388               0.005866002               0.000201044              -0.000681353               0.002182432               0.001501079               0.000000000               0.000000000               0.000000000               0.000000000               0.000070805               0.005571478               0.000157253              -0.000669881               0.002080434               0.001410553               0.000000000               0.000000000               0.000000000               0.000000000               0.000027185               0.005243035               0.000089701              -0.000645183               0.001962722               0.001317539               0.000000000               0.000000000               0.000000000               0.000000000              -0.000013531               0.004995388               0.000054212              -0.000629496               0.001874945               0.001245448               0.000000000               0.000000000               0.000000000               0.000000000               0.001967653               0.017656310              -0.002480232              -0.001469166               0.006375100               0.004905933               0.000000000               0.000000000               0.000000000               0.000000000               0.001645420               0.014225501              -0.001321571              -0.001161153               0.005128837               0.003967684               0.000000000               0.000000000               0.000000000               0.000000000               0.001852997               0.011588122              -0.000172607              -0.000753640               0.004113882               0.003360242               0.000000000               0.000000000               0.000000000               0.000000000               0.001659179               0.010101898               0.000303364              -0.000640544               0.003580780               0.002940236               0.000000000               0.000000000               0.000000000               0.000000000               0.001375360               0.009161178               0.000494171              -0.000629386               0.003263491               0.002634105               0.000000000               0.000000000               0.000000000               0.000000000               0.001101577               0.008505134               0.000555798              -0.000650049               0.003051699               0.002401650               0.000000000               0.000000000               0.000000000               0.000000000               0.000869803               0.008013705               0.000560465              -0.000675535               0.002896387               0.002220851               0.000000000               0.000000000               0.000000000               0.000000000               0.000675229               0.007622878               0.000543414              -0.000699647               0.002774150               0.002074502               0.000000000               0.000000000               0.000000000               0.000000000               0.000511716               0.007294603               0.000522580              -0.000719930               0.002671487               0.001951557               0.000000000               0.000000000               0.000000000               0.000000000               0.000376196               0.007006064               0.000500527              -0.000734683               0.002580225               0.001845543               0.000000000               0.000000000               0.000000000               0.000000000               0.000266174               0.006740634               0.000471215              -0.000742762               0.002494443               0.001751681               0.000000000               0.000000000               0.000000000               0.000000000               0.000179403               0.006489004               0.000433000              -0.000743848               0.002410929               0.001667081               0.000000000               0.000000000               0.000000000               0.000000000               0.000112622               0.006243424               0.000390107              -0.000738193               0.002327185               0.001588992               0.000000000               0.000000000               0.000000000               0.000000000               0.000064986               0.006001066               0.000337608              -0.000725762               0.002242256               0.001516494               0.000000000               0.000000000               0.000000000               0.000000000               0.000029187               0.005757580               0.000261404              -0.000708751               0.002155424               0.001446674               0.000000000               0.000000000               0.000000000               0.000000000               0.000007574               0.005515605               0.000148392              -0.000686609               0.002067386               0.001380778               0.000000000               0.000000000               0.000000000               0.000000000              -0.000013731               0.005353002               0.000086888              -0.000674273               0.002009074               0.001334801               0.000000000               0.000000000               0.000000000               0.000000000               0.002178688               0.016013748              -0.003334224              -0.001184710               0.005732765               0.004548055               0.000000000               0.000000000               0.000000000               0.000000000               0.001506884               0.013166889              -0.001794944              -0.001080778               0.004749178               0.003668400               0.000000000               0.000000000               0.000000000               0.000000000               0.001340847               0.011110058              -0.000286638              -0.000885937               0.003998628               0.003112691               0.000000000               0.000000000               0.000000000               0.000000000               0.001033843               0.009899267               0.000310442              -0.000849715               0.003582961               0.002733246               0.000000000               0.000000000               0.000000000               0.000000000               0.000750582               0.009093539               0.000542429              -0.000855222               0.003316223               0.002461001               0.000000000               0.000000000               0.000000000               0.000000000               0.000522680               0.008505274               0.000615789              -0.000867152               0.003124113               0.002256962               0.000000000               0.000000000               0.000000000               0.000000000               0.000350240               0.008050478               0.000622167              -0.000874968               0.002975122               0.002100154               0.000000000               0.000000000               0.000000000               0.000000000               0.000217863               0.007679894               0.000601769              -0.000878286               0.002852701               0.001974415               0.000000000               0.000000000               0.000000000               0.000000000               0.000118965               0.007360225               0.000575234              -0.000875414               0.002745189               0.001869774               0.000000000               0.000000000               0.000000000               0.000000000               0.000053819               0.007071898               0.000548168              -0.000863803               0.002645210               0.001781407               0.000000000               0.000000000               0.000000000               0.000000000               0.000016735               0.006806642               0.000514873              -0.000844553               0.002550376               0.001705823               0.000000000               0.000000000               0.000000000               0.000000000              -0.000000699               0.006562332               0.000470727              -0.000820552               0.002460939               0.001640388               0.000000000               0.000000000               0.000000000               0.000000000              -0.000010085               0.006336585               0.000418007              -0.000795853               0.002377458               0.001581605               0.000000000               0.000000000               0.000000000               0.000000000              -0.000014721               0.006130989               0.000352749              -0.000771892               0.002300940               0.001529048               0.000000000               0.000000000               0.000000000               0.000000000              -0.000014713               0.005951385               0.000263207              -0.000749439               0.002233588               0.001484149               0.000000000               0.000000000               0.000000000               0.000000000              -0.000010664               0.005806348               0.000143479              -0.000729791               0.002178694               0.001448903               0.000000000               0.000000000               0.000000000               0.000000000              -0.000010723               0.005733920               0.000078106              -0.000720759               0.002151541               0.001430781               0.000000000               0.000000000               0.000000000               0.000000000               0.002307779               0.014002533              -0.003812193              -0.000884900               0.004962430               0.004077530               0.000000000               0.000000000               0.000000000               0.000000000               0.001270024               0.011892143              -0.002095965              -0.001010258               0.004300760               0.003290502               0.000000000               0.000000000               0.000000000               0.000000000               0.000713768               0.010527188              -0.000431782              -0.001048233               0.003858438               0.002810205               0.000000000               0.000000000               0.000000000               0.000000000               0.000329545               0.009622483               0.000198461              -0.001079228               0.003567205               0.002487977               0.000000000               0.000000000               0.000000000               0.000000000               0.000081042               0.008958997               0.000437445              -0.001089481               0.003349463               0.002259982               0.000000000               0.000000000               0.000000000               0.000000000              -0.000072769               0.008443445               0.000511969              -0.001082716               0.003175359               0.002092643               0.000000000               0.000000000               0.000000000               0.000000000              -0.000161986               0.008024030               0.000521625              -0.001063746               0.003029232               0.001965486               0.000000000               0.000000000               0.000000000               0.000000000              -0.000212398               0.007668485               0.000506470              -0.001038207               0.002902205               0.001863998               0.000000000               0.000000000               0.000000000               0.000000000              -0.000233567               0.007356254               0.000481905              -0.001007117               0.002787766               0.001780649               0.000000000               0.000000000               0.000000000               0.000000000              -0.000226913               0.007071670               0.000453996              -0.000969049               0.002680216               0.001711167               0.000000000               0.000000000               0.000000000               0.000000000              -0.000195886               0.006811247               0.000421019              -0.000924861               0.002578680               0.001653819               0.000000000               0.000000000               0.000000000               0.000000000              -0.000151828               0.006578219               0.000377525              -0.000879210               0.002485788               0.001606577               0.000000000               0.000000000               0.000000000               0.000000000              -0.000110783               0.006373870               0.000324228              -0.000838275               0.002404027               0.001565752               0.000000000               0.000000000               0.000000000               0.000000000              -0.000076896               0.006200616               0.000261886              -0.000803911               0.002334822               0.001530911               0.000000000               0.000000000               0.000000000               0.000000000              -0.000044886               0.006065733               0.000182511              -0.000775047               0.002280240               0.001505193               0.000000000               0.000000000               0.000000000               0.000000000              -0.000018020               0.005980122               0.000090465              -0.000754271               0.002244778               0.001490507               0.000000000               0.000000000               0.000000000               0.000000000              -0.000005537               0.005953568               0.000043367              -0.000746270               0.002233260               0.001486989               0.000000000               0.000000000               0.000000000               0.000000000               0.002259131               0.011825309              -0.003913470              -0.000630992               0.004152060               0.003521068               0.000000000               0.000000000               0.000000000               0.000000000               0.000927435               0.010534024              -0.002236849              -0.000968964               0.003834294               0.002865330               0.000000000               0.000000000               0.000000000               0.000000000               0.000048531               0.009894018              -0.000618740              -0.001218550               0.003704156               0.002485606               0.000000000               0.000000000               0.000000000               0.000000000              -0.000345025               0.009280934              -0.000027295              -0.001289498               0.003523446               0.002233949               0.000000000               0.000000000               0.000000000               0.000000000              -0.000513788               0.008748250               0.000199969              -0.001286198               0.003344787               0.002058589               0.000000000               0.000000000               0.000000000               0.000000000              -0.000571153               0.008296032               0.000279964              -0.001251183               0.003182377               0.001931194               0.000000000               0.000000000               0.000000000               0.000000000              -0.000565659               0.007906323               0.000300725              -0.001200410               0.003035551               0.001835141               0.000000000               0.000000000               0.000000000               0.000000000              -0.000530575               0.007561023               0.000301305              -0.001144091               0.002901679               0.001757589               0.000000000               0.000000000               0.000000000               0.000000000              -0.000474692               0.007253769               0.000290077              -0.001084728               0.002779475               0.001694747               0.000000000               0.000000000               0.000000000               0.000000000              -0.000401763               0.006976920               0.000271790              -0.001022774               0.002666541               0.001643768               0.000000000               0.000000000               0.000000000               0.000000000              -0.000319593               0.006731134               0.000247350              -0.000961237               0.002564101               0.001602865               0.000000000               0.000000000               0.000000000               0.000000000              -0.000240505               0.006515642               0.000214957              -0.000904642               0.002473407               0.001568764               0.000000000               0.000000000               0.000000000               0.000000000              -0.000170463               0.006333156               0.000175166              -0.000855566               0.002396219               0.001540653               0.000000000               0.000000000               0.000000000               0.000000000              -0.000110198               0.006183865               0.000129805              -0.000814305               0.002332703               0.001518397               0.000000000               0.000000000               0.000000000               0.000000000              -0.000058458               0.006072028               0.000078320              -0.000780923               0.002284297               0.001503374               0.000000000               0.000000000               0.000000000               0.000000000              -0.000020427               0.006002189               0.000030304              -0.000757932               0.002253354               0.001495422               0.000000000               0.000000000               0.000000000               0.000000000              -0.000008548               0.005973688               0.000011234              -0.000749915               0.002241181               0.001491267               0.000000000               0.000000000               0.000000000               0.000000000               0.001981142               0.009662888              -0.003698183              -0.000464936               0.003375908               0.002910972               0.000000000               0.000000000               0.000000000               0.000000000               0.000501209               0.009198297              -0.002257293              -0.000961833               0.003386679               0.002424846               0.000000000               0.000000000               0.000000000               0.000000000              -0.000578155               0.009235828              -0.000853686              -0.001371283               0.003535673               0.002164389               0.000000000               0.000000000               0.000000000               0.000000000              -0.000909521               0.008876428              -0.000337685              -0.001450620               0.003442320               0.001991700               0.000000000               0.000000000               0.000000000               0.000000000              -0.000963407               0.008457764              -0.000118099              -0.001418495               0.003292058               0.001873563               0.000000000               0.000000000               0.000000000               0.000000000              -0.000913529               0.008058415              -0.000019004              -0.001349872               0.003136069               0.001786197               0.000000000               0.000000000               0.000000000               0.000000000              -0.000816902               0.007696617               0.000025370              -0.001268412               0.002988318               0.001719905               0.000000000               0.000000000               0.000000000               0.000000000              -0.000704965               0.007366994               0.000050332              -0.001185233               0.002850718               0.001665485               0.000000000               0.000000000               0.000000000               0.000000000              -0.000585392               0.007069157               0.000062850              -0.001103164               0.002724084               0.001620920               0.000000000               0.000000000               0.000000000               0.000000000              -0.000465435               0.006802382               0.000065993              -0.001024833               0.002609049               0.001584216               0.000000000               0.000000000               0.000000000               0.000000000              -0.000351758               0.006571147               0.000062822              -0.000953300               0.002508127               0.001554827               0.000000000               0.000000000               0.000000000               0.000000000              -0.000252082               0.006374855               0.000052673              -0.000891385               0.002422059               0.001530674               0.000000000               0.000000000               0.000000000               0.000000000              -0.000172147               0.006210264               0.000037571              -0.000840836               0.002350346               0.001509510               0.000000000               0.000000000               0.000000000               0.000000000              -0.000110334               0.006076044               0.000020388              -0.000800879               0.002292287               0.001491408               0.000000000               0.000000000               0.000000000               0.000000000              -0.000063185               0.005971566               0.000004339              -0.000770138               0.002247215               0.001477077               0.000000000               0.000000000               0.000000000               0.000000000              -0.000027420               0.005892118              -0.000004793              -0.000746795               0.002212952               0.001466156               0.000000000               0.000000000               0.000000000               0.000000000              -0.000023679               0.005841220              -0.000000198              -0.000739030               0.002193397               0.001454367               0.000000000               0.000000000               0.000000000               0.000000000               0.001502448               0.007645043              -0.003247512              -0.000392215               0.002679059               0.002286844               0.000000000               0.000000000               0.000000000               0.000000000               0.000025412               0.007962058              -0.002197965              -0.000985727               0.002982568               0.001996841               0.000000000               0.000000000               0.000000000               0.000000000              -0.001094383               0.008569371              -0.001129002              -0.001481562               0.003350282               0.001868721               0.000000000               0.000000000               0.000000000               0.000000000              -0.001305249               0.008416911              -0.000685651              -0.001541578               0.003319468               0.001777890               0.000000000               0.000000000               0.000000000               0.000000000              -0.001241499               0.008098266              -0.000456069              -0.001477842               0.003192009               0.001714167               0.000000000               0.000000000               0.000000000               0.000000000              -0.001094000               0.007754234              -0.000325061              -0.001379526               0.003044561               0.001665035               0.000000000               0.000000000               0.000000000               0.000000000              -0.000921339               0.007423452              -0.000245504              -0.001273430               0.002898936               0.001625506               0.000000000               0.000000000               0.000000000               0.000000000              -0.000748589               0.007116100              -0.000189865              -0.001170230               0.002762086               0.001591856               0.000000000               0.000000000               0.000000000               0.000000000              -0.000586279               0.006832811              -0.000146953              -0.001073953               0.002635565               0.001561612               0.000000000               0.000000000               0.000000000               0.000000000              -0.000439542               0.006582661              -0.000114091              -0.000987659               0.002523418               0.001535759               0.000000000               0.000000000               0.000000000               0.000000000              -0.000313097               0.006368568              -0.000086335              -0.000913480               0.002427328               0.001513848               0.000000000               0.000000000               0.000000000               0.000000000              -0.000213423               0.006185638              -0.000065463              -0.000853236               0.002346271               0.001493035               0.000000000               0.000000000               0.000000000               0.000000000              -0.000143029               0.006025192              -0.000050774              -0.000806783               0.002277305               0.001470522               0.000000000               0.000000000               0.000000000               0.000000000              -0.000093682               0.005879488              -0.000037547              -0.000770065               0.002216498               0.001446433               0.000000000               0.000000000               0.000000000               0.000000000              -0.000060575               0.005746436              -0.000021992              -0.000741018               0.002162466               0.001421447               0.000000000               0.000000000               0.000000000               0.000000000              -0.000034081               0.005625993              -0.000007337              -0.000716028               0.002113988               0.001397960               0.000000000               0.000000000               0.000000000               0.000000000              -0.000033668               0.005543765               0.000007700              -0.000705594               0.002083101               0.001377507               0.000000000               0.000000000               0.000000000               0.000000000               0.000915683               0.005925866              -0.002652609              -0.000397354               0.002107719               0.001710365               0.000000000               0.000000000               0.000000000               0.000000000              -0.000417455               0.006858075              -0.002103089              -0.001013804               0.002623936               0.001610132               0.000000000               0.000000000               0.000000000               0.000000000              -0.001458270               0.007924669              -0.001445318              -0.001537431               0.003154007               0.001616575               0.000000000               0.000000000               0.000000000               0.000000000              -0.001540428               0.007983404              -0.001050418              -0.001575582               0.003186302               0.001610720               0.000000000               0.000000000               0.000000000               0.000000000              -0.001388706               0.007779522              -0.000795949              -0.001493201               0.003090882               0.001597680               0.000000000               0.000000000               0.000000000               0.000000000              -0.001173779               0.007504177              -0.000626003              -0.001378186               0.002960763               0.001582577               0.000000000               0.000000000               0.000000000               0.000000000              -0.000949142               0.007215123              -0.000506288              -0.001257816               0.002824289               0.001566473               0.000000000               0.000000000               0.000000000               0.000000000              -0.000735943               0.006934690              -0.000416610              -0.001142812               0.002692478               0.001549665               0.000000000               0.000000000               0.000000000               0.000000000              -0.000542421               0.006672322              -0.000340361              -0.001037446               0.002569900               0.001532455               0.000000000               0.000000000               0.000000000               0.000000000              -0.000377876               0.006443333              -0.000273453              -0.000947118               0.002463462               0.001516344               0.000000000               0.000000000               0.000000000               0.000000000              -0.000246474               0.006244433              -0.000213743              -0.000872980               0.002372450               0.001499471               0.000000000               0.000000000               0.000000000               0.000000000              -0.000151885               0.006062756              -0.000162019              -0.000814799               0.002292498               0.001477699               0.000000000               0.000000000               0.000000000               0.000000000              -0.000103912               0.005876197              -0.000120598              -0.000773490               0.002216543               0.001443053               0.000000000               0.000000000               0.000000000               0.000000000              -0.000090472               0.005686281              -0.000084586              -0.000744710               0.002143645               0.001398934               0.000000000               0.000000000               0.000000000               0.000000000              -0.000099170               0.005506125              -0.000048853              -0.000725453               0.002077174               0.001351721               0.000000000               0.000000000               0.000000000               0.000000000              -0.000115372               0.005331564              -0.000019899              -0.000709708               0.002013740               0.001304032               0.000000000               0.000000000               0.000000000               0.000000000              -0.000124117               0.005230530              -0.000004410              -0.000700358               0.001976945               0.001276587               0.000000000               0.000000000               0.000000000               0.000000000               0.000193012               0.004315647              -0.002004922              -0.000467077               0.001594226               0.001127149               0.000000000               0.000000000               0.000000000               0.000000000              -0.000760897               0.005585399              -0.001987568              -0.000983510               0.002189617               0.001206107               0.000000000               0.000000000               0.000000000               0.000000000              -0.001620959               0.006978905              -0.001781142              -0.001480220               0.002819684               0.001339465               0.000000000               0.000000000               0.000000000               0.000000000              -0.001643571               0.007327266              -0.001447418              -0.001532244               0.002953145               0.001420901               0.000000000               0.000000000               0.000000000               0.000000000              -0.001461500               0.007318578              -0.001172713              -0.001462882               0.002927129               0.001464247               0.000000000               0.000000000               0.000000000               0.000000000              -0.001232128               0.007180886              -0.000962285              -0.001359656               0.002846823               0.001487167               0.000000000               0.000000000               0.000000000               0.000000000              -0.000994922               0.006992714              -0.000801060              -0.001247182               0.002746609               0.001499427               0.000000000               0.000000000               0.000000000               0.000000000              -0.000771268               0.006782533              -0.000674501              -0.001137039               0.002639835               0.001502795               0.000000000               0.000000000               0.000000000               0.000000000              -0.000569812               0.006575001              -0.000565134              -0.001035552               0.002536829               0.001501277               0.000000000               0.000000000               0.000000000               0.000000000              -0.000396313               0.006383051              -0.000465161              -0.000946497               0.002443161               0.001496665               0.000000000               0.000000000               0.000000000               0.000000000              -0.000256430               0.006206352              -0.000374371              -0.000871953               0.002359414               0.001487461               0.000000000               0.000000000               0.000000000               0.000000000              -0.000155930               0.006029782              -0.000290867              -0.000812195               0.002280639               0.001468444               0.000000000               0.000000000               0.000000000               0.000000000              -0.000110610               0.005824614              -0.000214892              -0.000769554               0.002198037               0.001428483               0.000000000               0.000000000               0.000000000               0.000000000              -0.000110875               0.005611243              -0.000144082              -0.000742982               0.002118056               0.001375075               0.000000000               0.000000000               0.000000000               0.000000000              -0.000148823               0.005400796              -0.000078987              -0.000730906               0.002043883               0.001312977               0.000000000               0.000000000               0.000000000               0.000000000              -0.000214704               0.005194454              -0.000030916              -0.000729819               0.001974741               0.001244921               0.000000000               0.000000000               0.000000000               0.000000000              -0.000253202               0.005091298              -0.000010221              -0.000731361               0.001940870               0.001209508               0.000000000               0.000000000               0.000000000               0.000000000              -0.000778523               0.002846462              -0.001342815              -0.000647753               0.001164728               0.000516975               0.000000000               0.000000000               0.000000000               0.000000000              -0.001152822               0.004311575              -0.001804752              -0.000971254               0.001760928               0.000789674               0.000000000               0.000000000               0.000000000               0.000000000              -0.001697933               0.005891708              -0.002036857              -0.001373186               0.002421611               0.001048425               0.000000000               0.000000000               0.000000000               0.000000000              -0.001664832               0.006512395              -0.001819552              -0.001438359               0.002650229               0.001211870               0.000000000               0.000000000               0.000000000               0.000000000              -0.001470490               0.006726487              -0.001554405              -0.001392242               0.002706220               0.001313978               0.000000000               0.000000000               0.000000000               0.000000000              -0.001244317               0.006754771              -0.001320533              -0.001310962               0.002688555               0.001377593               0.000000000               0.000000000               0.000000000               0.000000000              -0.001013980               0.006694825              -0.001127201              -0.001217093               0.002637284               0.001420191               0.000000000               0.000000000               0.000000000               0.000000000              -0.000792732               0.006591667              -0.000966628              -0.001121230               0.002570944               0.001449713               0.000000000               0.000000000               0.000000000               0.000000000              -0.000588345               0.006464341              -0.000827962              -0.001028670               0.002497649               0.001468979               0.000000000               0.000000000               0.000000000               0.000000000              -0.000405216               0.006320647              -0.000705039              -0.000942035               0.002420873               0.001478838               0.000000000               0.000000000               0.000000000               0.000000000              -0.000248700               0.006178833              -0.000591289              -0.000865615               0.002348129               0.001482514               0.000000000               0.000000000               0.000000000               0.000000000              -0.000130315               0.006024932              -0.000478846              -0.000801983               0.002275618               0.001473635               0.000000000               0.000000000               0.000000000               0.000000000              -0.000068262               0.005833017              -0.000368002              -0.000754723               0.002195894               0.001441171               0.000000000               0.000000000               0.000000000               0.000000000              -0.000060819               0.005626851              -0.000259903              -0.000726162               0.002117652               0.001391490               0.000000000               0.000000000               0.000000000               0.000000000              -0.000102124               0.005414056              -0.000154409              -0.000715052               0.002043018               0.001327966               0.000000000               0.000000000               0.000000000               0.000000000              -0.000190870               0.005202053              -0.000066105              -0.000721831               0.001974611               0.001252779               0.000000000               0.000000000               0.000000000               0.000000000              -0.000261532               0.005090799              -0.000022627              -0.000734423               0.001941724               0.001207301               0.000000000               0.000000000               0.000000000               0.000000000              -0.001934527               0.001628306              -0.000715063              -0.000928984               0.000852424              -0.000076561               0.000000000               0.000000000               0.000000000               0.000000000              -0.001647666               0.003114259              -0.001532312              -0.001007155               0.001373794               0.000366638               0.000000000               0.000000000               0.000000000               0.000000000              -0.001730302               0.004684243              -0.002122506              -0.001234391               0.001972862               0.000738470               0.000000000               0.000000000               0.000000000               0.000000000              -0.001581945               0.005495594              -0.002055178              -0.001280176               0.002258571               0.000978395               0.000000000               0.000000000               0.000000000               0.000000000              -0.001365340               0.005913324              -0.001837699              -0.001251166               0.002388143               0.001136977               0.000000000               0.000000000               0.000000000               0.000000000              -0.001141802               0.006117786              -0.001610659              -0.001192897               0.002436873               0.001243977               0.000000000               0.000000000               0.000000000               0.000000000              -0.000925774               0.006209739              -0.001404226              -0.001123380               0.002444352               0.001320972               0.000000000               0.000000000               0.000000000               0.000000000              -0.000722125               0.006235342              -0.001223893              -0.001050212               0.002428497               0.001378285               0.000000000               0.000000000               0.000000000               0.000000000              -0.000526616               0.006209258              -0.001070667              -0.000973636               0.002394277               0.001420641               0.000000000               0.000000000               0.000000000               0.000000000              -0.000339438               0.006142045              -0.000936070              -0.000895043               0.002345675               0.001450632               0.000000000               0.000000000               0.000000000               0.000000000              -0.000172527               0.006056675              -0.000808542              -0.000821780               0.002292798               0.001471018               0.000000000               0.000000000               0.000000000               0.000000000              -0.000039210               0.005946046              -0.000679177              -0.000757958               0.002234648               0.001476690               0.000000000               0.000000000               0.000000000               0.000000000               0.000047076               0.005788726              -0.000543541              -0.000705936               0.002164868               0.001458932               0.000000000               0.000000000               0.000000000               0.000000000               0.000080988               0.005609574              -0.000402624              -0.000670825               0.002093448               0.001422623               0.000000000               0.000000000               0.000000000               0.000000000               0.000058228               0.005412135              -0.000258826              -0.000654680               0.002022254               0.001367574               0.000000000               0.000000000               0.000000000               0.000000000              -0.000020610               0.005204699              -0.000122675              -0.000658314               0.001954320               0.001296006               0.000000000               0.000000000               0.000000000               0.000000000              -0.000095436               0.005090986              -0.000050815              -0.000672160               0.001921032               0.001248872               0.000000000               0.000000000               0.000000000               0.000000000              -0.003189452               0.000715509              -0.000200969              -0.001285481               0.000666992              -0.000618489               0.000000000               0.000000000               0.000000000               0.000000000              -0.002215087               0.002052396              -0.001204635              -0.001087205               0.001046526              -0.000040679               0.000000000               0.000000000               0.000000000               0.000000000              -0.001746796               0.003452239              -0.002017730              -0.001086577               0.001512926               0.000426349               0.000000000               0.000000000               0.000000000               0.000000000              -0.001421868               0.004357395              -0.002091271              -0.001077873               0.001811741               0.000733867               0.000000000               0.000000000               0.000000000               0.000000000              -0.001158679               0.004938668              -0.001945871              -0.001051836               0.001996818               0.000944981               0.000000000               0.000000000               0.000000000               0.000000000              -0.000933219               0.005311149              -0.001751231              -0.001013849               0.002108314               0.001094465               0.000000000               0.000000000               0.000000000               0.000000000              -0.000732373               0.005555319              -0.001556087              -0.000969053               0.002174772               0.001205719               0.000000000               0.000000000               0.000000000               0.000000000              -0.000545377               0.005714087              -0.001378683              -0.000918776               0.002210935               0.001292159               0.000000000               0.000000000               0.000000000               0.000000000              -0.000365737               0.005803925              -0.001228746              -0.000862640               0.002222169               0.001359528               0.000000000               0.000000000               0.000000000               0.000000000              -0.000190339               0.005837301              -0.001094753              -0.000801038               0.002212760               0.001411722               0.000000000               0.000000000               0.000000000               0.000000000              -0.000021062               0.005832920              -0.000965685              -0.000737012               0.002189958               0.001452946               0.000000000               0.000000000               0.000000000               0.000000000               0.000126632               0.005784860              -0.000834289              -0.000675619               0.002153474               0.001477854               0.000000000               0.000000000               0.000000000               0.000000000               0.000235889               0.005678214              -0.000691691              -0.000621317               0.002099825               0.001478508               0.000000000               0.000000000               0.000000000               0.000000000               0.000307241               0.005539552              -0.000535640              -0.000577227               0.002038908               0.001461681               0.000000000               0.000000000               0.000000000               0.000000000               0.000332904               0.005375292              -0.000368441              -0.000547071               0.001974103               0.001427032               0.000000000               0.000000000               0.000000000               0.000000000               0.000299059               0.005190850              -0.000190252              -0.000536708               0.001909169               0.001372461               0.000000000               0.000000000               0.000000000               0.000000000               0.000248285               0.005087957              -0.000092444              -0.000542886               0.001876931               0.001334044               0.000000000               0.000000000               0.000000000               0.000000000              -0.004407050               0.000096146               0.000133890              -0.001664660               0.000586932              -0.001077729               0.000000000               0.000000000               0.000000000               0.000000000              -0.002793433               0.001180839              -0.000860360              -0.001195141               0.000791987              -0.000403153               0.000000000               0.000000000               0.000000000               0.000000000              -0.001766654               0.002309343              -0.001717522              -0.000951162               0.001086826               0.000135664               0.000000000               0.000000000               0.000000000               0.000000000              -0.001230355               0.003223718              -0.001883766              -0.000864347               0.001362677               0.000498330               0.000000000               0.000000000               0.000000000               0.000000000              -0.000894973               0.003915177              -0.001813348              -0.000825011               0.001580049               0.000755038               0.000000000               0.000000000               0.000000000               0.000000000              -0.000653107               0.004426773              -0.001669067              -0.000798261               0.001741663               0.000943402               0.000000000               0.000000000               0.000000000               0.000000000              -0.000458987               0.004804545              -0.001509387              -0.000772687               0.001859061               0.001086374               0.000000000               0.000000000               0.000000000               0.000000000              -0.000284945               0.005085554              -0.001359799              -0.000742548               0.001942683               0.001200136               0.000000000               0.000000000               0.000000000               0.000000000              -0.000121626               0.005292027              -0.001229180              -0.000707112               0.001999695               0.001292583               0.000000000               0.000000000               0.000000000               0.000000000               0.000035989               0.005434896              -0.001110083              -0.000665865               0.002033569               0.001367704               0.000000000               0.000000000               0.000000000               0.000000000               0.000197260               0.005525914              -0.000995871              -0.000616766               0.002047541               0.001430776               0.000000000               0.000000000               0.000000000               0.000000000               0.000352051               0.005557377              -0.000876007              -0.000562652               0.002039991               0.001477339               0.000000000               0.000000000               0.000000000               0.000000000               0.000488278               0.005519715              -0.000743853              -0.000506859               0.002008840               0.001501980               0.000000000               0.000000000               0.000000000               0.000000000               0.000608083               0.005434777              -0.000600035              -0.000451315               0.001962012               0.001510697               0.000000000               0.000000000               0.000000000               0.000000000               0.000706641               0.005312978              -0.000435418              -0.000399131               0.001904019               0.001504888               0.000000000               0.000000000               0.000000000               0.000000000               0.000767450               0.005165271              -0.000236234              -0.000357864               0.001841028               0.001483164               0.000000000               0.000000000               0.000000000               0.000000000               0.000791540               0.005089108              -0.000126467              -0.000339310               0.001809456               0.001470146               0.000000000               0.000000000               0.000000000               0.000000000              -0.005438351              -0.000271480               0.000257373              -0.002005445               0.000577984              -0.001427461               0.000000000               0.000000000               0.000000000               0.000000000              -0.003304488               0.000542179              -0.000536110              -0.001306954               0.000616373              -0.000690581               0.000000000               0.000000000               0.000000000               0.000000000              -0.001792652               0.001384211              -0.001246495              -0.000845270               0.000743154              -0.000102115               0.000000000               0.000000000               0.000000000               0.000000000              -0.001052260               0.002254494              -0.001428580              -0.000676408               0.000976959               0.000300551               0.000000000               0.000000000               0.000000000               0.000000000              -0.000635814               0.003000091              -0.001412664              -0.000613441               0.001204500               0.000591059               0.000000000               0.000000000               0.000000000               0.000000000              -0.000367644               0.003604741              -0.001323834              -0.000588458               0.001397721               0.000809262               0.000000000               0.000000000               0.000000000               0.000000000              -0.000169587               0.004085287              -0.001214721              -0.000574255               0.001553167               0.000978911               0.000000000               0.000000000               0.000000000               0.000000000              -0.000002757               0.004467582              -0.001108714              -0.000559481               0.001675672               0.001116192               0.000000000               0.000000000               0.000000000               0.000000000               0.000145344               0.004767946              -0.001012891              -0.000541488               0.001769795               0.001228307               0.000000000               0.000000000               0.000000000               0.000000000               0.000290490               0.005004039              -0.000925932              -0.000516570               0.001840186               0.001323616               0.000000000               0.000000000               0.000000000               0.000000000               0.000442995               0.005188592              -0.000839852              -0.000482450               0.001890330               0.001407880               0.000000000               0.000000000               0.000000000               0.000000000               0.000598780               0.005302191              -0.000747517              -0.000438230               0.001913456               0.001475226               0.000000000               0.000000000               0.000000000               0.000000000               0.000760280               0.005334088              -0.000646275              -0.000381655               0.001905230               0.001523575               0.000000000               0.000000000               0.000000000               0.000000000               0.000931906               0.005306731              -0.000533658              -0.000313876               0.001873518               0.001559642               0.000000000               0.000000000               0.000000000               0.000000000               0.001112997               0.005235026              -0.000398447              -0.000237004               0.001823992               0.001586989               0.000000000               0.000000000               0.000000000               0.000000000               0.001303734               0.005130137              -0.000222404              -0.000152366               0.001760817               0.001608451               0.000000000               0.000000000               0.000000000               0.000000000               0.001446692               0.005087866              -0.000127031              -0.000093474               0.001727096               0.001633623               0.000000000               0.000000000               0.000000000               0.000000000              -0.006135553              -0.000448768               0.000188826              -0.002244735               0.000598652              -0.001646083               0.000000000               0.000000000               0.000000000               0.000000000              -0.003663478               0.000158955              -0.000251379              -0.001393672               0.000517539              -0.000876133               0.000000000               0.000000000               0.000000000               0.000000000              -0.001818149               0.000785447              -0.000653967              -0.000779985               0.000521807              -0.000258179               0.000000000               0.000000000               0.000000000               0.000000000              -0.000924380               0.001602222              -0.000771029              -0.000546919               0.000716375               0.000169455               0.000000000               0.000000000               0.000000000               0.000000000              -0.000443124               0.002361628              -0.000776312              -0.000461374               0.000940993               0.000479618               0.000000000               0.000000000               0.000000000               0.000000000              -0.000152191               0.003013225              -0.000736032              -0.000433724               0.001148973               0.000715249               0.000000000               0.000000000               0.000000000               0.000000000               0.000051972               0.003557757              -0.000681566              -0.000425229               0.001327650               0.000902421               0.000000000               0.000000000               0.000000000               0.000000000               0.000214386               0.004004312              -0.000626139              -0.000420143               0.001474805               0.001054662               0.000000000               0.000000000               0.000000000               0.000000000               0.000357197               0.004367033              -0.000575649              -0.000411929               0.001592973               0.001181043               0.000000000               0.000000000               0.000000000               0.000000000               0.000495440               0.004665801              -0.000530946              -0.000397434               0.001687730               0.001290295               0.000000000               0.000000000               0.000000000               0.000000000               0.000641976               0.004913966              -0.000484257              -0.000373504               0.001762474               0.001388970               0.000000000               0.000000000               0.000000000               0.000000000               0.000800566               0.005087477              -0.000434630              -0.000335722               0.001807716               0.001471994               0.000000000               0.000000000               0.000000000               0.000000000               0.000975342               0.005169608              -0.000380672              -0.000280447               0.001816668               0.001536221               0.000000000               0.000000000               0.000000000               0.000000000               0.001181644               0.005188148              -0.000317749              -0.000205402               0.001797833               0.001592431               0.000000000               0.000000000               0.000000000               0.000000000               0.001431190               0.005161643              -0.000240073              -0.000108509               0.001756700               0.001648191               0.000000000               0.000000000               0.000000000               0.000000000               0.001737253               0.005095066              -0.000135851               0.000014586               0.001693476               0.001708062               0.000000000               0.000000000               0.000000000               0.000000000               0.001990629               0.005082894              -0.000080346               0.000111123               0.001657240               0.001768363               0.000000000               0.000000000               0.000000000               0.000000000              -0.006382036              -0.000497333              -0.000000000              -0.002331096               0.000611250              -0.001719845               0.000000000               0.000000000               0.000000000               0.000000000              -0.003793632               0.000033764               0.000000000              -0.001426831               0.000486862              -0.000939969               0.000000000               0.000000000               0.000000000               0.000000000              -0.001829470               0.000578389               0.000000000              -0.000758349               0.000445576              -0.000312773               0.000000000               0.000000000               0.000000000               0.000000000              -0.000877206               0.001372147              -0.000000000              -0.000500470               0.000624201               0.000123731               0.000000000               0.000000000               0.000000000               0.000000000              -0.000370057               0.002134349              -0.000000000              -0.000405564               0.000846630               0.000441066               0.000000000               0.000000000               0.000000000               0.000000000              -0.000070527               0.002796288               0.000000000              -0.000375983               0.001057414               0.000681431               0.000000000               0.000000000               0.000000000               0.000000000               0.000135669               0.003360817               0.000000000              -0.000369225               0.001243336               0.000874111               0.000000000               0.000000000               0.000000000               0.000000000               0.000295886               0.003830911               0.000000000              -0.000367906               0.001399593               0.001031687               0.000000000               0.000000000               0.000000000               0.000000000               0.000438703               0.004215155              -0.000000000              -0.000362380               0.001525831               0.001163451               0.000000000               0.000000000               0.000000000               0.000000000               0.000574113               0.004535512              -0.000000000              -0.000351646               0.001629037               0.001277392               0.000000000               0.000000000               0.000000000               0.000000000               0.000719337               0.004806773               0.000000000              -0.000331095               0.001712607               0.001381512               0.000000000               0.000000000               0.000000000               0.000000000               0.000880093               0.005003408               0.000000000              -0.000295391               0.001766249               0.001470859               0.000000000               0.000000000               0.000000000               0.000000000               0.001058787               0.005105482              -0.000000000              -0.000241139               0.001782190               0.001541051               0.000000000               0.000000000               0.000000000               0.000000000               0.001275916               0.005141570              -0.000000000              -0.000164227               0.001768582               0.001604355               0.000000000               0.000000000               0.000000000               0.000000000               0.001551194               0.005131658               0.000000000              -0.000059759               0.001730455               0.001670696               0.000000000               0.000000000               0.000000000               0.000000000               0.001902730               0.005079052               0.000000000               0.000078641               0.001666787               0.001745428               0.000000000               0.000000000               0.000000000               0.000000000               0.002200775               0.005078643              -0.000000000               0.000190458               0.001629378               0.001819836               0.000000000               0.000000000               0.000000000               0.000000000               0.000000000               0.000000000               0.000000000               0.000000000               0.000000000               0.000000000               0.000000000               0.000000000               0.000000000               0.000000000               0.000000000               0.000000000               0.000000000               0.000000000               0.000000000               0.000000000               0.000000000               0.000000000               0.000000000               0.000000000               0.000000000               0.000000000               0.000000000               0.000000000               0.000000000               0.000000000               0.000000000               0.000000000               0.000000000               0.000000000               0.000000000               0.000000000               0.000000000               0.000000000               0.000000000               0.000000000               0.000000000               0.000000000               0.000000000               0.000000000               0.000000000               0.000000000               0.000000000               0.000000000               0.000000000               0.000000000               0.000000000               0.000000000               0.000000000               0.000000000               0.000000000               0.000000000               0.000000000               0.000000000               0.000000000               0.000000000               0.000000000               0.000000000               0.000000000               0.000000000               0.000000000               0.000000000               0.000000000               0.000000000               0.000000000               0.000000000               0.000000000               0.000000000               0.000000000               0.000000000               0.000000000               0.000000000               0.000000000               0.000000000               0.000000000               0.000000000               0.000000000               0.000000000               0.000000000               0.000000000               0.000000000               0.000000000               0.000000000               0.000000000               0.000000000               0.000000000               0.000000000               0.000000000               0.000000000               0.000000000               0.000000000               0.000000000               0.000000000               0.000000000               0.000000000               0.000000000               0.000000000               0.000000000               0.000000000               0.000000000               0.000000000               0.000000000               0.000000000               0.000000000               0.000000000               0.000000000               0.000000000               0.000000000               0.000000000               0.000000000               0.000000000               0.000000000               0.000000000               0.000000000               0.000000000               0.000000000               0.000000000               0.000000000               0.000000000               0.000000000               0.000000000               0.000000000               0.000000000               0.000000000               0.000000000               0.000000000               0.000000000               0.000000000               0.000000000               0.000000000               0.000000000               0.000000000               0.000000000               0.000000000               0.000000000               0.000000000               0.000000000               0.000000000               0.000000000               0.000000000               0.000000000               0.000000000               0.000000000               0.000000000               0.000000000               0.000000000               0.000000000               0.000000000               0.000000000               0.000000000               0.000000000               0.000000000               0.000000000               0.000000000               0.000000000               0.000000000               0.000000000               0.000000000               0.000000000               0.000000000               0.000000000               0.000000000               0.000000000               0.000000000               0.000000000               0.000000000               0.000000000               0.000000000               0.000000000               0.000000000               0.001786486               0.018741924               0.001323185              -0.001672805               0.006804847               0.005132043               0.000000000               0.000000000               0.000000000               0.000000000               0.001715714               0.014934955               0.000701411              -0.001223474               0.005386093               0.004162619               0.000000000               0.000000000               0.000000000               0.000000000               0.002188212               0.011902864               0.000079960              -0.000667277               0.004190007               0.003522731               0.000000000               0.000000000               0.000000000               0.000000000               0.002088880               0.010217312              -0.000186319              -0.000493833               0.003570348               0.003076515               0.000000000               0.000000000               0.000000000               0.000000000               0.001824053               0.009179471              -0.000296611              -0.000463413               0.003214264               0.002750851               0.000000000               0.000000000               0.000000000               0.000000000               0.001532800               0.008477293              -0.000333370              -0.000484860               0.002987356               0.002502496               0.000000000               0.000000000               0.000000000               0.000000000               0.001266275               0.007960853              -0.000336291              -0.000520252               0.002827009               0.002306756               0.000000000               0.000000000               0.000000000               0.000000000               0.001030167               0.007553228              -0.000325865              -0.000557840               0.002703664               0.002145824               0.000000000               0.000000000               0.000000000               0.000000000               0.000823580               0.007215793              -0.000313398              -0.000593130               0.002602950               0.002009820               0.000000000               0.000000000               0.000000000               0.000000000               0.000644345               0.006926311              -0.000300984              -0.000624158               0.002516800               0.001892642               0.000000000               0.000000000               0.000000000               0.000000000               0.000484809               0.006661195              -0.000282795              -0.000650844               0.002437324               0.001786480               0.000000000               0.000000000               0.000000000               0.000000000               0.000344714               0.006402396              -0.000258211              -0.000671030               0.002357787               0.001686757               0.000000000               0.000000000               0.000000000               0.000000000               0.000228319               0.006139150              -0.000231564              -0.000681773               0.002273621               0.001591848               0.000000000               0.000000000               0.000000000               0.000000000               0.000138388               0.005866002              -0.000201044              -0.000681353               0.002182432               0.001501079               0.000000000               0.000000000               0.000000000               0.000000000               0.000070805               0.005571478              -0.000157253              -0.000669881               0.002080434               0.001410553               0.000000000               0.000000000               0.000000000               0.000000000               0.000027185               0.005243035              -0.000089701              -0.000645183               0.001962722               0.001317539               0.000000000               0.000000000               0.000000000               0.000000000              -0.000013531               0.004995388              -0.000054212              -0.000629496               0.001874945               0.001245448               0.000000000               0.000000000               0.000000000               0.000000000               0.001967653               0.017656310               0.002480232              -0.001469166               0.006375100               0.004905933               0.000000000               0.000000000               0.000000000               0.000000000               0.001645420               0.014225501               0.001321571              -0.001161153               0.005128837               0.003967684               0.000000000               0.000000000               0.000000000               0.000000000               0.001852997               0.011588122               0.000172607              -0.000753640               0.004113882               0.003360242               0.000000000               0.000000000               0.000000000               0.000000000               0.001659179               0.010101898              -0.000303364              -0.000640544               0.003580780               0.002940236               0.000000000               0.000000000               0.000000000               0.000000000               0.001375360               0.009161178              -0.000494171              -0.000629386               0.003263491               0.002634105               0.000000000               0.000000000               0.000000000               0.000000000               0.001101577               0.008505134              -0.000555798              -0.000650049               0.003051699               0.002401650               0.000000000               0.000000000               0.000000000               0.000000000               0.000869803               0.008013705              -0.000560465              -0.000675535               0.002896387               0.002220851               0.000000000               0.000000000               0.000000000               0.000000000               0.000675229               0.007622878              -0.000543414              -0.000699647               0.002774150               0.002074502               0.000000000               0.000000000               0.000000000               0.000000000               0.000511716               0.007294603              -0.000522580              -0.000719930               0.002671487               0.001951557               0.000000000               0.000000000               0.000000000               0.000000000               0.000376196               0.007006064              -0.000500527              -0.000734683               0.002580225               0.001845543               0.000000000               0.000000000               0.000000000               0.000000000               0.000266174               0.006740634              -0.000471215              -0.000742762               0.002494443               0.001751681               0.000000000               0.000000000               0.000000000               0.000000000               0.000179403               0.006489004              -0.000433000              -0.000743848               0.002410929               0.001667081               0.000000000               0.000000000               0.000000000               0.000000000               0.000112622               0.006243424              -0.000390107              -0.000738193               0.002327185               0.001588992               0.000000000               0.000000000               0.000000000               0.000000000               0.000064986               0.006001066              -0.000337608              -0.000725762               0.002242256               0.001516494               0.000000000               0.000000000               0.000000000               0.000000000               0.000029187               0.005757580              -0.000261404              -0.000708751               0.002155424               0.001446674               0.000000000               0.000000000               0.000000000               0.000000000               0.000007574               0.005515605              -0.000148392              -0.000686609               0.002067386               0.001380778               0.000000000               0.000000000               0.000000000               0.000000000              -0.000013731               0.005353002              -0.000086888              -0.000674273               0.002009074               0.001334801               0.000000000               0.000000000               0.000000000               0.000000000               0.002178688               0.016013748               0.003334224              -0.001184710               0.005732765               0.004548055               0.000000000               0.000000000               0.000000000               0.000000000               0.001506884               0.013166889               0.001794944              -0.001080778               0.004749178               0.003668400               0.000000000               0.000000000               0.000000000               0.000000000               0.001340847               0.011110058               0.000286638              -0.000885937               0.003998628               0.003112691               0.000000000               0.000000000               0.000000000               0.000000000               0.001033843               0.009899267              -0.000310442              -0.000849715               0.003582961               0.002733246               0.000000000               0.000000000               0.000000000               0.000000000               0.000750582               0.009093539              -0.000542429              -0.000855222               0.003316223               0.002461001               0.000000000               0.000000000               0.000000000               0.000000000               0.000522680               0.008505274              -0.000615789              -0.000867152               0.003124113               0.002256962               0.000000000               0.000000000               0.000000000               0.000000000               0.000350240               0.008050478              -0.000622167              -0.000874968               0.002975122               0.002100154               0.000000000               0.000000000               0.000000000               0.000000000               0.000217863               0.007679894              -0.000601769              -0.000878286               0.002852701               0.001974415               0.000000000               0.000000000               0.000000000               0.000000000               0.000118965               0.007360225              -0.000575234              -0.000875414               0.002745189               0.001869774               0.000000000               0.000000000               0.000000000               0.000000000               0.000053819               0.007071898              -0.000548168              -0.000863803               0.002645210               0.001781407               0.000000000               0.000000000               0.000000000               0.000000000               0.000016735               0.006806642              -0.000514873              -0.000844553               0.002550376               0.001705823               0.000000000               0.000000000               0.000000000               0.000000000              -0.000000699               0.006562332              -0.000470727              -0.000820552               0.002460939               0.001640388               0.000000000               0.000000000               0.000000000               0.000000000              -0.000010085               0.006336585              -0.000418007              -0.000795853               0.002377458               0.001581605               0.000000000               0.000000000               0.000000000               0.000000000              -0.000014721               0.006130989              -0.000352749              -0.000771892               0.002300940               0.001529048               0.000000000               0.000000000               0.000000000               0.000000000              -0.000014713               0.005951385              -0.000263207              -0.000749439               0.002233588               0.001484149               0.000000000               0.000000000               0.000000000               0.000000000              -0.000010664               0.005806348              -0.000143479              -0.000729791               0.002178694               0.001448903               0.000000000               0.000000000               0.000000000               0.000000000              -0.000010723               0.005733920              -0.000078106              -0.000720759               0.002151541               0.001430781               0.000000000               0.000000000               0.000000000               0.000000000               0.002307779               0.014002533               0.003812193              -0.000884900               0.004962430               0.004077530               0.000000000               0.000000000               0.000000000               0.000000000               0.001270024               0.011892143               0.002095965              -0.001010258               0.004300760               0.003290502               0.000000000               0.000000000               0.000000000               0.000000000               0.000713768               0.010527188               0.000431782              -0.001048233               0.003858438               0.002810205               0.000000000               0.000000000               0.000000000               0.000000000               0.000329545               0.009622483              -0.000198461              -0.001079228               0.003567205               0.002487977               0.000000000               0.000000000               0.000000000               0.000000000               0.000081042               0.008958997              -0.000437445              -0.001089481               0.003349463               0.002259982               0.000000000               0.000000000               0.000000000               0.000000000              -0.000072769               0.008443445              -0.000511969              -0.001082716               0.003175359               0.002092643               0.000000000               0.000000000               0.000000000               0.000000000              -0.000161986               0.008024030              -0.000521625              -0.001063746               0.003029232               0.001965486               0.000000000               0.000000000               0.000000000               0.000000000              -0.000212398               0.007668485              -0.000506470              -0.001038207               0.002902205               0.001863998               0.000000000               0.000000000               0.000000000               0.000000000              -0.000233567               0.007356254              -0.000481905              -0.001007117               0.002787766               0.001780649               0.000000000               0.000000000               0.000000000               0.000000000              -0.000226913               0.007071670              -0.000453996              -0.000969049               0.002680216               0.001711167               0.000000000               0.000000000               0.000000000               0.000000000              -0.000195886               0.006811247              -0.000421019              -0.000924861               0.002578680               0.001653819               0.000000000               0.000000000               0.000000000               0.000000000              -0.000151828               0.006578219              -0.000377525              -0.000879210               0.002485788               0.001606577               0.000000000               0.000000000               0.000000000               0.000000000              -0.000110783               0.006373870              -0.000324228              -0.000838275               0.002404027               0.001565752               0.000000000               0.000000000               0.000000000               0.000000000              -0.000076896               0.006200616              -0.000261886              -0.000803911               0.002334822               0.001530911               0.000000000               0.000000000               0.000000000               0.000000000              -0.000044886               0.006065733              -0.000182511              -0.000775047               0.002280240               0.001505193               0.000000000               0.000000000               0.000000000               0.000000000              -0.000018020               0.005980122              -0.000090465              -0.000754271               0.002244778               0.001490507               0.000000000               0.000000000               0.000000000               0.000000000              -0.000005537               0.005953568              -0.000043367              -0.000746270               0.002233260               0.001486989               0.000000000               0.000000000               0.000000000               0.000000000               0.002259131               0.011825309               0.003913470              -0.000630992               0.004152060               0.003521068               0.000000000               0.000000000               0.000000000               0.000000000               0.000927435               0.010534024               0.002236849              -0.000968964               0.003834294               0.002865330               0.000000000               0.000000000               0.000000000               0.000000000               0.000048531               0.009894018               0.000618740              -0.001218550               0.003704156               0.002485606               0.000000000               0.000000000               0.000000000               0.000000000              -0.000345025               0.009280934               0.000027295              -0.001289498               0.003523446               0.002233949               0.000000000               0.000000000               0.000000000               0.000000000              -0.000513788               0.008748250              -0.000199969              -0.001286198               0.003344787               0.002058589               0.000000000               0.000000000               0.000000000               0.000000000              -0.000571153               0.008296032              -0.000279964              -0.001251183               0.003182377               0.001931194               0.000000000               0.000000000               0.000000000               0.000000000              -0.000565659               0.007906323              -0.000300725              -0.001200410               0.003035551               0.001835141               0.000000000               0.000000000               0.000000000               0.000000000              -0.000530575               0.007561023              -0.000301305              -0.001144091               0.002901679               0.001757589               0.000000000               0.000000000               0.000000000               0.000000000              -0.000474692               0.007253769              -0.000290077              -0.001084728               0.002779475               0.001694747               0.000000000               0.000000000               0.000000000               0.000000000              -0.000401763               0.006976920              -0.000271790              -0.001022774               0.002666541               0.001643768               0.000000000               0.000000000               0.000000000               0.000000000              -0.000319593               0.006731134              -0.000247350              -0.000961237               0.002564101               0.001602865               0.000000000               0.000000000               0.000000000               0.000000000              -0.000240505               0.006515642              -0.000214957              -0.000904642               0.002473407               0.001568764               0.000000000               0.000000000               0.000000000               0.000000000              -0.000170463               0.006333156              -0.000175166              -0.000855566               0.002396219               0.001540653               0.000000000               0.000000000               0.000000000               0.000000000              -0.000110198               0.006183865              -0.000129805              -0.000814305               0.002332703               0.001518397               0.000000000               0.000000000               0.000000000               0.000000000              -0.000058458               0.006072028              -0.000078320              -0.000780923               0.002284297               0.001503374               0.000000000               0.000000000               0.000000000               0.000000000              -0.000020427               0.006002189              -0.000030304              -0.000757932               0.002253354               0.001495422               0.000000000               0.000000000               0.000000000               0.000000000              -0.000008548               0.005973688              -0.000011234              -0.000749915               0.002241181               0.001491267               0.000000000               0.000000000               0.000000000               0.000000000               0.001981142               0.009662888               0.003698183              -0.000464936               0.003375908               0.002910972               0.000000000               0.000000000               0.000000000               0.000000000               0.000501209               0.009198297               0.002257293              -0.000961833               0.003386679               0.002424846               0.000000000               0.000000000               0.000000000               0.000000000              -0.000578155               0.009235828               0.000853686              -0.001371283               0.003535673               0.002164389               0.000000000               0.000000000               0.000000000               0.000000000              -0.000909521               0.008876428               0.000337685              -0.001450620               0.003442320               0.001991700               0.000000000               0.000000000               0.000000000               0.000000000              -0.000963407               0.008457764               0.000118099              -0.001418495               0.003292058               0.001873563               0.000000000               0.000000000               0.000000000               0.000000000              -0.000913529               0.008058415               0.000019004              -0.001349872               0.003136069               0.001786197               0.000000000               0.000000000               0.000000000               0.000000000              -0.000816902               0.007696617              -0.000025370              -0.001268412               0.002988318               0.001719905               0.000000000               0.000000000               0.000000000               0.000000000              -0.000704965               0.007366994              -0.000050332              -0.001185233               0.002850718               0.001665485               0.000000000               0.000000000               0.000000000               0.000000000              -0.000585392               0.007069157              -0.000062850              -0.001103164               0.002724084               0.001620920               0.000000000               0.000000000               0.000000000               0.000000000              -0.000465435               0.006802382              -0.000065993              -0.001024833               0.002609049               0.001584216               0.000000000               0.000000000               0.000000000               0.000000000              -0.000351758               0.006571147              -0.000062822              -0.000953300               0.002508127               0.001554827               0.000000000               0.000000000               0.000000000               0.000000000              -0.000252082               0.006374855              -0.000052673              -0.000891385               0.002422059               0.001530674               0.000000000               0.000000000               0.000000000               0.000000000              -0.000172147               0.006210264              -0.000037571              -0.000840836               0.002350346               0.001509510               0.000000000               0.000000000               0.000000000               0.000000000              -0.000110334               0.006076044              -0.000020388              -0.000800879               0.002292287               0.001491408               0.000000000               0.000000000               0.000000000               0.000000000              -0.000063185               0.005971566              -0.000004339              -0.000770138               0.002247215               0.001477077               0.000000000               0.000000000               0.000000000               0.000000000              -0.000027420               0.005892118               0.000004793              -0.000746795               0.002212952               0.001466156               0.000000000               0.000000000               0.000000000               0.000000000              -0.000023679               0.005841220               0.000000198              -0.000739030               0.002193397               0.001454367               0.000000000               0.000000000               0.000000000               0.000000000               0.001502448               0.007645043               0.003247512              -0.000392215               0.002679059               0.002286844               0.000000000               0.000000000               0.000000000               0.000000000               0.000025412               0.007962058               0.002197965              -0.000985727               0.002982568               0.001996841               0.000000000               0.000000000               0.000000000               0.000000000              -0.001094383               0.008569371               0.001129002              -0.001481562               0.003350282               0.001868721               0.000000000               0.000000000               0.000000000               0.000000000              -0.001305249               0.008416911               0.000685651              -0.001541578               0.003319468               0.001777890               0.000000000               0.000000000               0.000000000               0.000000000              -0.001241499               0.008098266               0.000456069              -0.001477842               0.003192009               0.001714167               0.000000000               0.000000000               0.000000000               0.000000000              -0.001094000               0.007754234               0.000325061              -0.001379526               0.003044561               0.001665035               0.000000000               0.000000000               0.000000000               0.000000000              -0.000921339               0.007423452               0.000245504              -0.001273430               0.002898936               0.001625506               0.000000000               0.000000000               0.000000000               0.000000000              -0.000748589               0.007116100               0.000189865              -0.001170230               0.002762086               0.001591856               0.000000000               0.000000000               0.000000000               0.000000000              -0.000586279               0.006832811               0.000146953              -0.001073953               0.002635565               0.001561612               0.000000000               0.000000000               0.000000000               0.000000000              -0.000439542               0.006582661               0.000114091              -0.000987659               0.002523418               0.001535759               0.000000000               0.000000000               0.000000000               0.000000000              -0.000313097               0.006368568               0.000086335              -0.000913480               0.002427328               0.001513848               0.000000000               0.000000000               0.000000000               0.000000000              -0.000213423               0.006185638               0.000065463              -0.000853236               0.002346271               0.001493035               0.000000000               0.000000000               0.000000000               0.000000000              -0.000143029               0.006025192               0.000050774              -0.000806783               0.002277305               0.001470522               0.000000000               0.000000000               0.000000000               0.000000000              -0.000093682               0.005879488               0.000037547              -0.000770065               0.002216498               0.001446433               0.000000000               0.000000000               0.000000000               0.000000000              -0.000060575               0.005746436               0.000021992              -0.000741018               0.002162466               0.001421447               0.000000000               0.000000000               0.000000000               0.000000000              -0.000034081               0.005625993               0.000007337              -0.000716028               0.002113988               0.001397960               0.000000000               0.000000000               0.000000000               0.000000000              -0.000033668               0.005543765              -0.000007700              -0.000705594               0.002083101               0.001377507               0.000000000               0.000000000               0.000000000               0.000000000               0.000915683               0.005925866               0.002652609              -0.000397354               0.002107719               0.001710365               0.000000000               0.000000000               0.000000000               0.000000000              -0.000417455               0.006858075               0.002103089              -0.001013804               0.002623936               0.001610132               0.000000000               0.000000000               0.000000000               0.000000000              -0.001458270               0.007924669               0.001445318              -0.001537431               0.003154007               0.001616575               0.000000000               0.000000000               0.000000000               0.000000000              -0.001540428               0.007983404               0.001050418              -0.001575582               0.003186302               0.001610720               0.000000000               0.000000000               0.000000000               0.000000000              -0.001388706               0.007779522               0.000795949              -0.001493201               0.003090882               0.001597680               0.000000000               0.000000000               0.000000000               0.000000000              -0.001173779               0.007504177               0.000626003              -0.001378186               0.002960763               0.001582577               0.000000000               0.000000000               0.000000000               0.000000000              -0.000949142               0.007215123               0.000506288              -0.001257816               0.002824289               0.001566473               0.000000000               0.000000000               0.000000000               0.000000000              -0.000735943               0.006934690               0.000416610              -0.001142812               0.002692478               0.001549665               0.000000000               0.000000000               0.000000000               0.000000000              -0.000542421               0.006672322               0.000340361              -0.001037446               0.002569900               0.001532455               0.000000000               0.000000000               0.000000000               0.000000000              -0.000377876               0.006443333               0.000273453              -0.000947118               0.002463462               0.001516344               0.000000000               0.000000000               0.000000000               0.000000000              -0.000246474               0.006244433               0.000213743              -0.000872980               0.002372450               0.001499471               0.000000000               0.000000000               0.000000000               0.000000000              -0.000151885               0.006062756               0.000162019              -0.000814799               0.002292498               0.001477699               0.000000000               0.000000000               0.000000000               0.000000000              -0.000103912               0.005876197               0.000120598              -0.000773490               0.002216543               0.001443053               0.000000000               0.000000000               0.000000000               0.000000000              -0.000090472               0.005686281               0.000084586              -0.000744710               0.002143645               0.001398934               0.000000000               0.000000000               0.000000000               0.000000000              -0.000099170               0.005506125               0.000048853              -0.000725453               0.002077174               0.001351721               0.000000000               0.000000000               0.000000000               0.000000000              -0.000115372               0.005331564               0.000019899              -0.000709708               0.002013740               0.001304032               0.000000000               0.000000000               0.000000000               0.000000000              -0.000124117               0.005230530               0.000004410              -0.000700358               0.001976945               0.001276587               0.000000000               0.000000000               0.000000000               0.000000000               0.000193012               0.004315647               0.002004922              -0.000467077               0.001594226               0.001127149               0.000000000               0.000000000               0.000000000               0.000000000              -0.000760897               0.005585399               0.001987568              -0.000983510               0.002189617               0.001206107               0.000000000               0.000000000               0.000000000               0.000000000              -0.001620959               0.006978905               0.001781142              -0.001480220               0.002819684               0.001339465               0.000000000               0.000000000               0.000000000               0.000000000              -0.001643571               0.007327266               0.001447418              -0.001532244               0.002953145               0.001420901               0.000000000               0.000000000               0.000000000               0.000000000              -0.001461500               0.007318578               0.001172713              -0.001462882               0.002927129               0.001464247               0.000000000               0.000000000               0.000000000               0.000000000              -0.001232128               0.007180886               0.000962285              -0.001359656               0.002846823               0.001487167               0.000000000               0.000000000               0.000000000               0.000000000              -0.000994922               0.006992714               0.000801060              -0.001247182               0.002746609               0.001499427               0.000000000               0.000000000               0.000000000               0.000000000              -0.000771268               0.006782533               0.000674501              -0.001137039               0.002639835               0.001502795               0.000000000               0.000000000               0.000000000               0.000000000              -0.000569812               0.006575001               0.000565134              -0.001035552               0.002536829               0.001501277               0.000000000               0.000000000               0.000000000               0.000000000              -0.000396313               0.006383051               0.000465161              -0.000946497               0.002443161               0.001496665               0.000000000               0.000000000               0.000000000               0.000000000              -0.000256430               0.006206352               0.000374371              -0.000871953               0.002359414               0.001487461               0.000000000               0.000000000               0.000000000               0.000000000              -0.000155930               0.006029782               0.000290867              -0.000812195               0.002280639               0.001468444               0.000000000               0.000000000               0.000000000               0.000000000              -0.000110610               0.005824614               0.000214892              -0.000769554               0.002198037               0.001428483               0.000000000               0.000000000               0.000000000               0.000000000              -0.000110875               0.005611243               0.000144082              -0.000742982               0.002118056               0.001375075               0.000000000               0.000000000               0.000000000               0.000000000              -0.000148823               0.005400796               0.000078987              -0.000730906               0.002043883               0.001312977               0.000000000               0.000000000               0.000000000               0.000000000              -0.000214704               0.005194454               0.000030916              -0.000729819               0.001974741               0.001244921               0.000000000               0.000000000               0.000000000               0.000000000              -0.000253202               0.005091298               0.000010221              -0.000731361               0.001940870               0.001209508               0.000000000               0.000000000               0.000000000               0.000000000              -0.000778523               0.002846462               0.001342815              -0.000647753               0.001164728               0.000516975               0.000000000               0.000000000               0.000000000               0.000000000              -0.001152822               0.004311575               0.001804752              -0.000971254               0.001760928               0.000789674               0.000000000               0.000000000               0.000000000               0.000000000              -0.001697933               0.005891708               0.002036857              -0.001373186               0.002421611               0.001048425               0.000000000               0.000000000               0.000000000               0.000000000              -0.001664832               0.006512395               0.001819552              -0.001438359               0.002650229               0.001211870               0.000000000               0.000000000               0.000000000               0.000000000              -0.001470490               0.006726487               0.001554405              -0.001392242               0.002706220               0.001313978               0.000000000               0.000000000               0.000000000               0.000000000              -0.001244317               0.006754771               0.001320533              -0.001310962               0.002688555               0.001377593               0.000000000               0.000000000               0.000000000               0.000000000              -0.001013980               0.006694825               0.001127201              -0.001217093               0.002637284               0.001420191               0.000000000               0.000000000               0.000000000               0.000000000              -0.000792732               0.006591667               0.000966628              -0.001121230               0.002570944               0.001449713               0.000000000               0.000000000               0.000000000               0.000000000              -0.000588345               0.006464341               0.000827962              -0.001028670               0.002497649               0.001468979               0.000000000               0.000000000               0.000000000               0.000000000              -0.000405216               0.006320647               0.000705039              -0.000942035               0.002420873               0.001478838               0.000000000               0.000000000               0.000000000               0.000000000              -0.000248700               0.006178833               0.000591289              -0.000865615               0.002348129               0.001482514               0.000000000               0.000000000               0.000000000               0.000000000              -0.000130315               0.006024932               0.000478846              -0.000801983               0.002275618               0.001473635               0.000000000               0.000000000               0.000000000               0.000000000              -0.000068262               0.005833017               0.000368002              -0.000754723               0.002195894               0.001441171               0.000000000               0.000000000               0.000000000               0.000000000              -0.000060819               0.005626851               0.000259903              -0.000726162               0.002117652               0.001391490               0.000000000               0.000000000               0.000000000               0.000000000              -0.000102124               0.005414056               0.000154409              -0.000715052               0.002043018               0.001327966               0.000000000               0.000000000               0.000000000               0.000000000              -0.000190870               0.005202053               0.000066105              -0.000721831               0.001974611               0.001252779               0.000000000               0.000000000               0.000000000               0.000000000              -0.000261532               0.005090799               0.000022627              -0.000734423               0.001941724               0.001207301               0.000000000               0.000000000               0.000000000               0.000000000              -0.001934527               0.001628306               0.000715063              -0.000928984               0.000852424              -0.000076561               0.000000000               0.000000000               0.000000000               0.000000000              -0.001647666               0.003114259               0.001532312              -0.001007155               0.001373794               0.000366638               0.000000000               0.000000000               0.000000000               0.000000000              -0.001730302               0.004684243               0.002122506              -0.001234391               0.001972862               0.000738470               0.000000000               0.000000000               0.000000000               0.000000000              -0.001581945               0.005495594               0.002055178              -0.001280176               0.002258571               0.000978395               0.000000000               0.000000000               0.000000000               0.000000000              -0.001365340               0.005913324               0.001837699              -0.001251166               0.002388143               0.001136977               0.000000000               0.000000000               0.000000000               0.000000000              -0.001141802               0.006117786               0.001610659              -0.001192897               0.002436873               0.001243977               0.000000000               0.000000000               0.000000000               0.000000000              -0.000925774               0.006209739               0.001404226              -0.001123380               0.002444352               0.001320972               0.000000000               0.000000000               0.000000000               0.000000000              -0.000722125               0.006235342               0.001223893              -0.001050212               0.002428497               0.001378285               0.000000000               0.000000000               0.000000000               0.000000000              -0.000526616               0.006209258               0.001070667              -0.000973636               0.002394277               0.001420641               0.000000000               0.000000000               0.000000000               0.000000000              -0.000339438               0.006142045               0.000936070              -0.000895043               0.002345675               0.001450632               0.000000000               0.000000000               0.000000000               0.000000000              -0.000172527               0.006056675               0.000808542              -0.000821780               0.002292798               0.001471018               0.000000000               0.000000000               0.000000000               0.000000000              -0.000039210               0.005946046               0.000679177              -0.000757958               0.002234648               0.001476690               0.000000000               0.000000000               0.000000000               0.000000000               0.000047076               0.005788726               0.000543541              -0.000705936               0.002164868               0.001458932               0.000000000               0.000000000               0.000000000               0.000000000               0.000080988               0.005609574               0.000402624              -0.000670825               0.002093448               0.001422623               0.000000000               0.000000000               0.000000000               0.000000000               0.000058228               0.005412135               0.000258826              -0.000654680               0.002022254               0.001367574               0.000000000               0.000000000               0.000000000               0.000000000              -0.000020610               0.005204699               0.000122675              -0.000658314               0.001954320               0.001296006               0.000000000               0.000000000               0.000000000               0.000000000              -0.000095436               0.005090986               0.000050815              -0.000672160               0.001921032               0.001248872               0.000000000               0.000000000               0.000000000               0.000000000              -0.003189452               0.000715509               0.000200969              -0.001285481               0.000666992              -0.000618489               0.000000000               0.000000000               0.000000000               0.000000000              -0.002215087               0.002052396               0.001204635              -0.001087205               0.001046526              -0.000040679               0.000000000               0.000000000               0.000000000               0.000000000              -0.001746796               0.003452239               0.002017730              -0.001086577               0.001512926               0.000426349               0.000000000               0.000000000               0.000000000               0.000000000              -0.001421868               0.004357395               0.002091271              -0.001077873               0.001811741               0.000733867               0.000000000               0.000000000               0.000000000               0.000000000              -0.001158679               0.004938668               0.001945871              -0.001051836               0.001996818               0.000944981               0.000000000               0.000000000               0.000000000               0.000000000              -0.000933219               0.005311149               0.001751231              -0.001013849               0.002108314               0.001094465               0.000000000               0.000000000               0.000000000               0.000000000              -0.000732373               0.005555319               0.001556087              -0.000969053               0.002174772               0.001205719               0.000000000               0.000000000               0.000000000               0.000000000              -0.000545377               0.005714087               0.001378683              -0.000918776               0.002210935               0.001292159               0.000000000               0.000000000               0.000000000               0.000000000              -0.000365737               0.005803925               0.001228746              -0.000862640               0.002222169               0.001359528               0.000000000               0.000000000               0.000000000               0.000000000              -0.000190339               0.005837301               0.001094753              -0.000801038               0.002212760               0.001411722               0.000000000               0.000000000               0.000000000               0.000000000              -0.000021062               0.005832920               0.000965685              -0.000737012               0.002189958               0.001452946               0.000000000               0.000000000               0.000000000               0.000000000               0.000126632               0.005784860               0.000834289              -0.000675619               0.002153474               0.001477854               0.000000000               0.000000000               0.000000000               0.000000000               0.000235889               0.005678214               0.000691691              -0.000621317               0.002099825               0.001478508               0.000000000               0.000000000               0.000000000               0.000000000               0.000307241               0.005539552               0.000535640              -0.000577227               0.002038908               0.001461681               0.000000000               0.000000000               0.000000000               0.000000000               0.000332904               0.005375292               0.000368441              -0.000547071               0.001974103               0.001427032               0.000000000               0.000000000               0.000000000               0.000000000               0.000299059               0.005190850               0.000190252              -0.000536708               0.001909169               0.001372461               0.000000000               0.000000000               0.000000000               0.000000000               0.000248285               0.005087957               0.000092444              -0.000542886               0.001876931               0.001334044               0.000000000               0.000000000               0.000000000               0.000000000              -0.004407050               0.000096146              -0.000133890              -0.001664660               0.000586932              -0.001077729               0.000000000               0.000000000               0.000000000               0.000000000              -0.002793433               0.001180839               0.000860360              -0.001195141               0.000791987              -0.000403153               0.000000000               0.000000000               0.000000000               0.000000000              -0.001766654               0.002309343               0.001717522              -0.000951162               0.001086826               0.000135664               0.000000000               0.000000000               0.000000000               0.000000000              -0.001230355               0.003223718               0.001883766              -0.000864347               0.001362677               0.000498330               0.000000000               0.000000000               0.000000000               0.000000000              -0.000894973               0.003915177               0.001813348              -0.000825011               0.001580049               0.000755038               0.000000000               0.000000000               0.000000000               0.000000000              -0.000653107               0.004426773               0.001669067              -0.000798261               0.001741663               0.000943402               0.000000000               0.000000000               0.000000000               0.000000000              -0.000458987               0.004804545               0.001509387              -0.000772687               0.001859061               0.001086374               0.000000000               0.000000000               0.000000000               0.000000000              -0.000284945               0.005085554               0.001359799              -0.000742548               0.001942683               0.001200136               0.000000000               0.000000000               0.000000000               0.000000000              -0.000121626               0.005292027               0.001229180              -0.000707112               0.001999695               0.001292583               0.000000000               0.000000000               0.000000000               0.000000000               0.000035989               0.005434896               0.001110083              -0.000665865               0.002033569               0.001367704               0.000000000               0.000000000               0.000000000               0.000000000               0.000197260               0.005525914               0.000995871              -0.000616766               0.002047541               0.001430776               0.000000000               0.000000000               0.000000000               0.000000000               0.000352051               0.005557377               0.000876007              -0.000562652               0.002039991               0.001477339               0.000000000               0.000000000               0.000000000               0.000000000               0.000488278               0.005519715               0.000743853              -0.000506859               0.002008840               0.001501980               0.000000000               0.000000000               0.000000000               0.000000000               0.000608083               0.005434777               0.000600035              -0.000451315               0.001962012               0.001510697               0.000000000               0.000000000               0.000000000               0.000000000               0.000706641               0.005312978               0.000435418              -0.000399131               0.001904019               0.001504888               0.000000000               0.000000000               0.000000000               0.000000000               0.000767450               0.005165271               0.000236234              -0.000357864               0.001841028               0.001483164               0.000000000               0.000000000               0.000000000               0.000000000               0.000791540               0.005089108               0.000126467              -0.000339310               0.001809456               0.001470146               0.000000000               0.000000000               0.000000000               0.000000000              -0.005438351              -0.000271480              -0.000257373              -0.002005445               0.000577984              -0.001427461               0.000000000               0.000000000               0.000000000               0.000000000              -0.003304488               0.000542179               0.000536110              -0.001306954               0.000616373              -0.000690581               0.000000000               0.000000000               0.000000000               0.000000000              -0.001792652               0.001384211               0.001246495              -0.000845270               0.000743154              -0.000102115               0.000000000               0.000000000               0.000000000               0.000000000              -0.001052260               0.002254494               0.001428580              -0.000676408               0.000976959               0.000300551               0.000000000               0.000000000               0.000000000               0.000000000              -0.000635814               0.003000091               0.001412664              -0.000613441               0.001204500               0.000591059               0.000000000               0.000000000               0.000000000               0.000000000              -0.000367644               0.003604741               0.001323834              -0.000588458               0.001397721               0.000809262               0.000000000               0.000000000               0.000000000               0.000000000              -0.000169587               0.004085287               0.001214721              -0.000574255               0.001553167               0.000978911               0.000000000               0.000000000               0.000000000               0.000000000              -0.000002757               0.004467582               0.001108714              -0.000559481               0.001675672               0.001116192               0.000000000               0.000000000               0.000000000               0.000000000               0.000145344               0.004767946               0.001012891              -0.000541488               0.001769795               0.001228307               0.000000000               0.000000000               0.000000000               0.000000000               0.000290490               0.005004039               0.000925932              -0.000516570               0.001840186               0.001323616               0.000000000               0.000000000               0.000000000               0.000000000               0.000442995               0.005188592               0.000839852              -0.000482450               0.001890330               0.001407880               0.000000000               0.000000000               0.000000000               0.000000000               0.000598780               0.005302191               0.000747517              -0.000438230               0.001913456               0.001475226               0.000000000               0.000000000               0.000000000               0.000000000               0.000760280               0.005334088               0.000646275              -0.000381655               0.001905230               0.001523575               0.000000000               0.000000000               0.000000000               0.000000000               0.000931906               0.005306731               0.000533658              -0.000313876               0.001873518               0.001559642               0.000000000               0.000000000               0.000000000               0.000000000               0.001112997               0.005235026               0.000398447              -0.000237004               0.001823992               0.001586989               0.000000000               0.000000000               0.000000000               0.000000000               0.001303734               0.005130137               0.000222404              -0.000152366               0.001760817               0.001608451               0.000000000               0.000000000               0.000000000               0.000000000               0.001446692               0.005087866               0.000127031              -0.000093474               0.001727096               0.001633623               0.000000000               0.000000000               0.000000000               0.000000000              -0.006135553              -0.000448768              -0.000188826              -0.002244735               0.000598652              -0.001646083               0.000000000               0.000000000               0.000000000               0.000000000              -0.003663478               0.000158955               0.000251379              -0.001393672               0.000517539              -0.000876133               0.000000000               0.000000000               0.000000000               0.000000000              -0.001818149               0.000785447               0.000653967              -0.000779985               0.000521807              -0.000258179               0.000000000               0.000000000               0.000000000               0.000000000              -0.000924380               0.001602222               0.000771029              -0.000546919               0.000716375               0.000169455               0.000000000               0.000000000               0.000000000               0.000000000              -0.000443124               0.002361628               0.000776312              -0.000461374               0.000940993               0.000479618               0.000000000               0.000000000               0.000000000               0.000000000              -0.000152191               0.003013225               0.000736032              -0.000433724               0.001148973               0.000715249               0.000000000               0.000000000               0.000000000               0.000000000               0.000051972               0.003557757               0.000681566              -0.000425229               0.001327650               0.000902421               0.000000000               0.000000000               0.000000000               0.000000000               0.000214386               0.004004312               0.000626139              -0.000420143               0.001474805               0.001054662               0.000000000               0.000000000               0.000000000               0.000000000               0.000357197               0.004367033               0.000575649              -0.000411929               0.001592973               0.001181043               0.000000000               0.000000000               0.000000000               0.000000000               0.000495440               0.004665801               0.000530946              -0.000397434               0.001687730               0.001290295               0.000000000               0.000000000               0.000000000               0.000000000               0.000641976               0.004913966               0.000484257              -0.000373504               0.001762474               0.001388970               0.000000000               0.000000000               0.000000000               0.000000000               0.000800566               0.005087477               0.000434630              -0.000335722               0.001807716               0.001471994               0.000000000               0.000000000               0.000000000               0.000000000               0.000975342               0.005169608               0.000380672              -0.000280447               0.001816668               0.001536221               0.000000000               0.000000000               0.000000000               0.000000000               0.001181644               0.005188148               0.000317749              -0.000205402               0.001797833               0.001592431               0.000000000               0.000000000               0.000000000               0.000000000               0.001431190               0.005161643               0.000240073              -0.000108509               0.001756700               0.001648191               0.000000000               0.000000000               0.000000000               0.000000000               0.001737253               0.005095066               0.000135851               0.000014586               0.001693476               0.001708062               0.000000000               0.000000000               0.000000000               0.000000000               0.001990629               0.005082894               0.000080346               0.000111123               0.001657240               0.001768363               0.000000000               0.000000000               0.000000000               0.000000000              -0.006382036              -0.000497333              -0.000000000              -0.002331096               0.000611250              -0.001719845               0.000000000               0.000000000               0.000000000               0.000000000              -0.003793632               0.000033764              -0.000000000              -0.001426831               0.000486862              -0.000939969               0.000000000               0.000000000               0.000000000               0.000000000              -0.001829470               0.000578389              -0.000000000              -0.000758349               0.000445576              -0.000312773               0.000000000               0.000000000               0.000000000               0.000000000              -0.000877206               0.001372147               0.000000000              -0.000500470               0.000624201               0.000123731               0.000000000               0.000000000               0.000000000               0.000000000              -0.000370057               0.002134349               0.000000000              -0.000405564               0.000846630               0.000441066               0.000000000               0.000000000               0.000000000               0.000000000              -0.000070527               0.002796288               0.000000000              -0.000375983               0.001057414               0.000681431               0.000000000               0.000000000               0.000000000               0.000000000               0.000135669               0.003360817               0.000000000              -0.000369225               0.001243336               0.000874111               0.000000000               0.000000000               0.000000000               0.000000000               0.000295886               0.003830911               0.000000000              -0.000367906               0.001399593               0.001031687               0.000000000               0.000000000               0.000000000               0.000000000               0.000438703               0.004215155              -0.000000000              -0.000362380               0.001525831               0.001163451               0.000000000               0.000000000               0.000000000               0.000000000               0.000574113               0.004535512               0.000000000              -0.000351646               0.001629037               0.001277392               0.000000000               0.000000000               0.000000000               0.000000000               0.000719337               0.004806773               0.000000000              -0.000331095               0.001712607               0.001381512               0.000000000               0.000000000               0.000000000               0.000000000               0.000880093               0.005003408              -0.000000000              -0.000295391               0.001766249               0.001470859               0.000000000               0.000000000               0.000000000               0.000000000               0.001058787               0.005105482              -0.000000000              -0.000241139               0.001782190               0.001541051               0.000000000               0.000000000               0.000000000               0.000000000               0.001275916               0.005141570               0.000000000              -0.000164227               0.001768582               0.001604355               0.000000000               0.000000000               0.000000000               0.000000000               0.001551194               0.005131658               0.000000000              -0.000059759               0.001730455               0.001670696               0.000000000               0.000000000               0.000000000               0.000000000               0.001902730               0.005079052               0.000000000               0.000078641               0.001666787               0.001745428               0.000000000               0.000000000               0.000000000               0.000000000               0.002200775               0.005078643              -0.000000000               0.000190458               0.001629378               0.001819836               0.000000000               0.000000000               0.000000000               0.000000000               0.001716231               0.019123014              -0.000000000              -0.001746786               0.006956536               0.005209750               0.000000000               0.000000000               0.000000000               0.000000000               0.001737175               0.015186128              -0.000000000              -0.001246822               0.005477600               0.004230777               0.000000000               0.000000000               0.000000000               0.000000000               0.002306297               0.012013958              -0.000000000              -0.000636882               0.004216907               0.003580025               0.000000000               0.000000000               0.000000000               0.000000000               0.002243551               0.010253819              -0.000000000              -0.000440395               0.003564704               0.003124309               0.000000000               0.000000000               0.000000000               0.000000000               0.001987461               0.009178828              -0.000000000              -0.000402055               0.003193597               0.002791542               0.000000000               0.000000000               0.000000000               0.000000000               0.001690878               0.008460154               0.000000000              -0.000423439               0.002961169               0.002537730               0.000000000               0.000000000               0.000000000               0.000000000               0.001414982               0.007937362               0.000000000              -0.000461551               0.002799611               0.002338060               0.000000000               0.000000000               0.000000000               0.000000000               0.001167843               0.007524793              -0.000000000              -0.000502657               0.002675791               0.002173135               0.000000000               0.000000000               0.000000000               0.000000000               0.000946536               0.007181816               0.000000000              -0.000542775               0.002574840               0.002032065               0.000000000               0.000000000               0.000000000               0.000000000               0.000751200               0.006888514              -0.000000000              -0.000579363               0.002489269               0.001909907               0.000000000               0.000000000               0.000000000               0.000000000               0.000575106               0.006624450              -0.000000000              -0.000612390               0.002412258               0.001799868               0.000000000               0.000000000               0.000000000               0.000000000               0.000417149               0.006364034              -0.000000000              -0.000639072               0.002334347               0.001695276               0.000000000               0.000000000               0.000000000               0.000000000               0.000282485               0.006095043              -0.000000000              -0.000655947               0.002250310               0.001594363               0.000000000               0.000000000               0.000000000               0.000000000               0.000171124               0.005808768               0.000000000              -0.000661923               0.002156877               0.001494955               0.000000000               0.000000000               0.000000000               0.000000000               0.000083580               0.005493739              -0.000000000              -0.000655373               0.002049686               0.001394313               0.000000000               0.000000000               0.000000000               0.000000000               0.000028886               0.005131829               0.000000000              -0.000630645               0.001920808               0.001290163               0.000000000               0.000000000               0.000000000               0.000000000              -0.000017901               0.004852072               0.000000000              -0.000613220               0.001821748               0.001208527               0.000000000               0.000000000               0.000000000               0.000000000               0.001786486               0.018741924              -0.001323185              -0.001672805               0.006804847               0.005132043               0.000000000               0.000000000               0.000000000               0.000000000               0.001715714               0.014934955              -0.000701411              -0.001223474               0.005386093               0.004162619               0.000000000               0.000000000               0.000000000               0.000000000               0.002188212               0.011902864              -0.000079960              -0.000667277               0.004190007               0.003522731               0.000000000               0.000000000               0.000000000               0.000000000               0.002088880               0.010217312               0.000186319              -0.000493833               0.003570348               0.003076515               0.000000000               0.000000000               0.000000000               0.000000000               0.001824053               0.009179471               0.000296611              -0.000463413               0.003214264               0.002750851               0.000000000               0.000000000               0.000000000               0.000000000               0.001532800               0.008477293               0.000333370              -0.000484860               0.002987356               0.002502496               0.000000000               0.000000000               0.000000000               0.000000000               0.001266275               0.007960853               0.000336291              -0.000520252               0.002827009               0.002306756               0.000000000               0.000000000               0.000000000               0.000000000               0.001030167               0.007553228               0.000325865              -0.000557840               0.002703664               0.002145824               0.000000000               0.000000000               0.000000000               0.000000000               0.000823580               0.007215793               0.000313398              -0.000593130               0.002602950               0.002009820               0.000000000               0.000000000               0.000000000               0.000000000               0.000644345               0.006926311               0.000300984              -0.000624158               0.002516800               0.001892642               0.000000000               0.000000000               0.000000000               0.000000000               0.000484809               0.006661195               0.000282795              -0.000650844               0.002437324               0.001786480               0.000000000               0.000000000               0.000000000               0.000000000               0.000344714               0.006402396               0.000258211              -0.000671030               0.002357787               0.001686757               0.000000000               0.000000000               0.000000000               0.000000000               0.000228319               0.006139150               0.000231564              -0.000681773               0.002273621               0.001591848               0.000000000               0.000000000               0.000000000               0.000000000               0.000138388               0.005866002               0.000201044              -0.000681353               0.002182432               0.001501079               0.000000000               0.000000000               0.000000000               0.000000000               0.000070805               0.005571478               0.000157253              -0.000669881               0.002080434               0.001410553               0.000000000               0.000000000               0.000000000               0.000000000               0.000027185               0.005243035               0.000089701              -0.000645183               0.001962722               0.001317539               0.000000000               0.000000000               0.000000000               0.000000000              -0.000013531               0.004995388               0.000054212              -0.000629496               0.001874945               0.001245448               0.000000000               0.000000000               0.000000000               0.000000000               0.001967653               0.017656310              -0.002480232              -0.001469166               0.006375100               0.004905933               0.000000000               0.000000000               0.000000000               0.000000000               0.001645420               0.014225501              -0.001321571              -0.001161153               0.005128837               0.003967684               0.000000000               0.000000000               0.000000000               0.000000000               0.001852997               0.011588122              -0.000172607              -0.000753640               0.004113882               0.003360242               0.000000000               0.000000000               0.000000000               0.000000000               0.001659179               0.010101898               0.000303364              -0.000640544               0.003580780               0.002940236               0.000000000               0.000000000               0.000000000               0.000000000               0.001375360               0.009161178               0.000494171              -0.000629386               0.003263491               0.002634105               0.000000000               0.000000000               0.000000000               0.000000000               0.001101577               0.008505134               0.000555798              -0.000650049               0.003051699               0.002401650               0.000000000               0.000000000               0.000000000               0.000000000               0.000869803               0.008013705               0.000560465              -0.000675535               0.002896387               0.002220851               0.000000000               0.000000000               0.000000000               0.000000000               0.000675229               0.007622878               0.000543414              -0.000699647               0.002774150               0.002074502               0.000000000               0.000000000               0.000000000               0.000000000               0.000511716               0.007294603               0.000522580              -0.000719930               0.002671487               0.001951557               0.000000000               0.000000000               0.000000000               0.000000000               0.000376196               0.007006064               0.000500527              -0.000734683               0.002580225               0.001845543               0.000000000               0.000000000               0.000000000               0.000000000               0.000266174               0.006740634               0.000471215              -0.000742762               0.002494443               0.001751681               0.000000000               0.000000000               0.000000000               0.000000000               0.000179403               0.006489004               0.000433000              -0.000743848               0.002410929               0.001667081               0.000000000               0.000000000               0.000000000               0.000000000               0.000112622               0.006243424               0.000390107              -0.000738193               0.002327185               0.001588992               0.000000000               0.000000000               0.000000000               0.000000000               0.000064986               0.006001066               0.000337608              -0.000725762               0.002242256               0.001516494               0.000000000               0.000000000               0.000000000               0.000000000               0.000029187               0.005757580               0.000261404              -0.000708751               0.002155424               0.001446674               0.000000000               0.000000000               0.000000000               0.000000000               0.000007574               0.005515605               0.000148392              -0.000686609               0.002067386               0.001380778               0.000000000               0.000000000               0.000000000               0.000000000              -0.000013731               0.005353002               0.000086888              -0.000674273               0.002009074               0.001334801               0.000000000               0.000000000               0.000000000               0.000000000               0.002178688               0.016013748              -0.003334224              -0.001184710               0.005732765               0.004548055               0.000000000               0.000000000               0.000000000               0.000000000               0.001506884               0.013166889              -0.001794944              -0.001080778               0.004749178               0.003668400               0.000000000               0.000000000               0.000000000               0.000000000               0.001340847               0.011110058              -0.000286638              -0.000885937               0.003998628               0.003112691               0.000000000               0.000000000               0.000000000               0.000000000               0.001033843               0.009899267               0.000310442              -0.000849715               0.003582961               0.002733246               0.000000000               0.000000000               0.000000000               0.000000000               0.000750582               0.009093539               0.000542429              -0.000855222               0.003316223               0.002461001               0.000000000               0.000000000               0.000000000               0.000000000               0.000522680               0.008505274               0.000615789              -0.000867152               0.003124113               0.002256962               0.000000000               0.000000000               0.000000000               0.000000000               0.000350240               0.008050478               0.000622167              -0.000874968               0.002975122               0.002100154               0.000000000               0.000000000               0.000000000               0.000000000               0.000217863               0.007679894               0.000601769              -0.000878286               0.002852701               0.001974415               0.000000000               0.000000000               0.000000000               0.000000000               0.000118965               0.007360225               0.000575234              -0.000875414               0.002745189               0.001869774               0.000000000               0.000000000               0.000000000               0.000000000               0.000053819               0.007071898               0.000548168              -0.000863803               0.002645210               0.001781407               0.000000000               0.000000000               0.000000000               0.000000000               0.000016735               0.006806642               0.000514873              -0.000844553               0.002550376               0.001705823               0.000000000               0.000000000               0.000000000               0.000000000              -0.000000699               0.006562332               0.000470727              -0.000820552               0.002460939               0.001640388               0.000000000               0.000000000               0.000000000               0.000000000              -0.000010085               0.006336585               0.000418007              -0.000795853               0.002377458               0.001581605               0.000000000               0.000000000               0.000000000               0.000000000              -0.000014721               0.006130989               0.000352749              -0.000771892               0.002300940               0.001529048               0.000000000               0.000000000               0.000000000               0.000000000              -0.000014713               0.005951385               0.000263207              -0.000749439               0.002233588               0.001484149               0.000000000               0.000000000               0.000000000               0.000000000              -0.000010664               0.005806348               0.000143479              -0.000729791               0.002178694               0.001448903               0.000000000               0.000000000               0.000000000               0.000000000              -0.000010723               0.005733920               0.000078106              -0.000720759               0.002151541               0.001430781               0.000000000               0.000000000               0.000000000               0.000000000               0.002307779               0.014002533              -0.003812193              -0.000884900               0.004962430               0.004077530               0.000000000               0.000000000               0.000000000               0.000000000               0.001270024               0.011892143              -0.002095965              -0.001010258               0.004300760               0.003290502               0.000000000               0.000000000               0.000000000               0.000000000               0.000713768               0.010527188              -0.000431782              -0.001048233               0.003858438               0.002810205               0.000000000               0.000000000               0.000000000               0.000000000               0.000329545               0.009622483               0.000198461              -0.001079228               0.003567205               0.002487977               0.000000000               0.000000000               0.000000000               0.000000000               0.000081042               0.008958997               0.000437445              -0.001089481               0.003349463               0.002259982               0.000000000               0.000000000               0.000000000               0.000000000              -0.000072769               0.008443445               0.000511969              -0.001082716               0.003175359               0.002092643               0.000000000               0.000000000               0.000000000               0.000000000              -0.000161986               0.008024030               0.000521625              -0.001063746               0.003029232               0.001965486               0.000000000               0.000000000               0.000000000               0.000000000              -0.000212398               0.007668485               0.000506470              -0.001038207               0.002902205               0.001863998               0.000000000               0.000000000               0.000000000               0.000000000              -0.000233567               0.007356254               0.000481905              -0.001007117               0.002787766               0.001780649               0.000000000               0.000000000               0.000000000               0.000000000              -0.000226913               0.007071670               0.000453996              -0.000969049               0.002680216               0.001711167               0.000000000               0.000000000               0.000000000               0.000000000              -0.000195886               0.006811247               0.000421019              -0.000924861               0.002578680               0.001653819               0.000000000               0.000000000               0.000000000               0.000000000              -0.000151828               0.006578219               0.000377525              -0.000879210               0.002485788               0.001606577               0.000000000               0.000000000               0.000000000               0.000000000              -0.000110783               0.006373870               0.000324228              -0.000838275               0.002404027               0.001565752               0.000000000               0.000000000               0.000000000               0.000000000              -0.000076896               0.006200616               0.000261886              -0.000803911               0.002334822               0.001530911               0.000000000               0.000000000               0.000000000               0.000000000              -0.000044886               0.006065733               0.000182511              -0.000775047               0.002280240               0.001505193               0.000000000               0.000000000               0.000000000               0.000000000              -0.000018020               0.005980122               0.000090465              -0.000754271               0.002244778               0.001490507               0.000000000               0.000000000               0.000000000               0.000000000              -0.000005537               0.005953568               0.000043367              -0.000746270               0.002233260               0.001486989               0.000000000               0.000000000               0.000000000               0.000000000               0.002259131               0.011825309              -0.003913470              -0.000630992               0.004152060               0.003521068               0.000000000               0.000000000               0.000000000               0.000000000               0.000927435               0.010534024              -0.002236849              -0.000968964               0.003834294               0.002865330               0.000000000               0.000000000               0.000000000               0.000000000               0.000048531               0.009894018              -0.000618740              -0.001218550               0.003704156               0.002485606               0.000000000               0.000000000               0.000000000               0.000000000              -0.000345025               0.009280934              -0.000027295              -0.001289498               0.003523446               0.002233949               0.000000000               0.000000000               0.000000000               0.000000000              -0.000513788               0.008748250               0.000199969              -0.001286198               0.003344787               0.002058589               0.000000000               0.000000000               0.000000000               0.000000000              -0.000571153               0.008296032               0.000279964              -0.001251183               0.003182377               0.001931194               0.000000000               0.000000000               0.000000000               0.000000000              -0.000565659               0.007906323               0.000300725              -0.001200410               0.003035551               0.001835141               0.000000000               0.000000000               0.000000000               0.000000000              -0.000530575               0.007561023               0.000301305              -0.001144091               0.002901679               0.001757589               0.000000000               0.000000000               0.000000000               0.000000000              -0.000474692               0.007253769               0.000290077              -0.001084728               0.002779475               0.001694747               0.000000000               0.000000000               0.000000000               0.000000000              -0.000401763               0.006976920               0.000271790              -0.001022774               0.002666541               0.001643768               0.000000000               0.000000000               0.000000000               0.000000000              -0.000319593               0.006731134               0.000247350              -0.000961237               0.002564101               0.001602865               0.000000000               0.000000000               0.000000000               0.000000000              -0.000240505               0.006515642               0.000214957              -0.000904642               0.002473407               0.001568764               0.000000000               0.000000000               0.000000000               0.000000000              -0.000170463               0.006333156               0.000175166              -0.000855566               0.002396219               0.001540653               0.000000000               0.000000000               0.000000000               0.000000000              -0.000110198               0.006183865               0.000129805              -0.000814305               0.002332703               0.001518397               0.000000000               0.000000000               0.000000000               0.000000000              -0.000058458               0.006072028               0.000078320              -0.000780923               0.002284297               0.001503374               0.000000000               0.000000000               0.000000000               0.000000000              -0.000020427               0.006002189               0.000030304              -0.000757932               0.002253354               0.001495422               0.000000000               0.000000000               0.000000000               0.000000000              -0.000008548               0.005973688               0.000011234              -0.000749915               0.002241181               0.001491267               0.000000000               0.000000000               0.000000000               0.000000000               0.001981142               0.009662888              -0.003698183              -0.000464936               0.003375908               0.002910972               0.000000000               0.000000000               0.000000000               0.000000000               0.000501209               0.009198297              -0.002257293              -0.000961833               0.003386679               0.002424846               0.000000000               0.000000000               0.000000000               0.000000000              -0.000578155               0.009235828              -0.000853686              -0.001371283               0.003535673               0.002164389               0.000000000               0.000000000               0.000000000               0.000000000              -0.000909521               0.008876428              -0.000337685              -0.001450620               0.003442320               0.001991700               0.000000000               0.000000000               0.000000000               0.000000000              -0.000963407               0.008457764              -0.000118099              -0.001418495               0.003292058               0.001873563               0.000000000               0.000000000               0.000000000               0.000000000              -0.000913529               0.008058415              -0.000019004              -0.001349872               0.003136069               0.001786197               0.000000000               0.000000000               0.000000000               0.000000000              -0.000816902               0.007696617               0.000025370              -0.001268412               0.002988318               0.001719905               0.000000000               0.000000000               0.000000000               0.000000000              -0.000704965               0.007366994               0.000050332              -0.001185233               0.002850718               0.001665485               0.000000000               0.000000000               0.000000000               0.000000000              -0.000585392               0.007069157               0.000062850              -0.001103164               0.002724084               0.001620920               0.000000000               0.000000000               0.000000000               0.000000000              -0.000465435               0.006802382               0.000065993              -0.001024833               0.002609049               0.001584216               0.000000000               0.000000000               0.000000000               0.000000000              -0.000351758               0.006571147               0.000062822              -0.000953300               0.002508127               0.001554827               0.000000000               0.000000000               0.000000000               0.000000000              -0.000252082               0.006374855               0.000052673              -0.000891385               0.002422059               0.001530674               0.000000000               0.000000000               0.000000000               0.000000000              -0.000172147               0.006210264               0.000037571              -0.000840836               0.002350346               0.001509510               0.000000000               0.000000000               0.000000000               0.000000000              -0.000110334               0.006076044               0.000020388              -0.000800879               0.002292287               0.001491408               0.000000000               0.000000000               0.000000000               0.000000000              -0.000063185               0.005971566               0.000004339              -0.000770138               0.002247215               0.001477077               0.000000000               0.000000000               0.000000000               0.000000000              -0.000027420               0.005892118              -0.000004793              -0.000746795               0.002212952               0.001466156               0.000000000               0.000000000               0.000000000               0.000000000              -0.000023679               0.005841220              -0.000000198              -0.000739030               0.002193397               0.001454367               0.000000000               0.000000000               0.000000000               0.000000000               0.001502448               0.007645043              -0.003247512              -0.000392215               0.002679059               0.002286844               0.000000000               0.000000000               0.000000000               0.000000000               0.000025412               0.007962058              -0.002197965              -0.000985727               0.002982568               0.001996841               0.000000000               0.000000000               0.000000000               0.000000000              -0.001094383               0.008569371              -0.001129002              -0.001481562               0.003350282               0.001868721               0.000000000               0.000000000               0.000000000               0.000000000              -0.001305249               0.008416911              -0.000685651              -0.001541578               0.003319468               0.001777890               0.000000000               0.000000000               0.000000000               0.000000000              -0.001241499               0.008098266              -0.000456069              -0.001477842               0.003192009               0.001714167               0.000000000               0.000000000               0.000000000               0.000000000              -0.001094000               0.007754234              -0.000325061              -0.001379526               0.003044561               0.001665035               0.000000000               0.000000000               0.000000000               0.000000000              -0.000921339               0.007423452              -0.000245504              -0.001273430               0.002898936               0.001625506               0.000000000               0.000000000               0.000000000               0.000000000              -0.000748589               0.007116100              -0.000189865              -0.001170230               0.002762086               0.001591856               0.000000000               0.000000000               0.000000000               0.000000000              -0.000586279               0.006832811              -0.000146953              -0.001073953               0.002635565               0.001561612               0.000000000               0.000000000               0.000000000               0.000000000              -0.000439542               0.006582661              -0.000114091              -0.000987659               0.002523418               0.001535759               0.000000000               0.000000000               0.000000000               0.000000000              -0.000313097               0.006368568              -0.000086335              -0.000913480               0.002427328               0.001513848               0.000000000               0.000000000               0.000000000               0.000000000              -0.000213423               0.006185638              -0.000065463              -0.000853236               0.002346271               0.001493035               0.000000000               0.000000000               0.000000000               0.000000000              -0.000143029               0.006025192              -0.000050774              -0.000806783               0.002277305               0.001470522               0.000000000               0.000000000               0.000000000               0.000000000              -0.000093682               0.005879488              -0.000037547              -0.000770065               0.002216498               0.001446433               0.000000000               0.000000000               0.000000000               0.000000000              -0.000060575               0.005746436              -0.000021992              -0.000741018               0.002162466               0.001421447               0.000000000               0.000000000               0.000000000               0.000000000              -0.000034081               0.005625993              -0.000007337              -0.000716028               0.002113988               0.001397960               0.000000000               0.000000000               0.000000000               0.000000000              -0.000033668               0.005543765               0.000007700              -0.000705594               0.002083101               0.001377507               0.000000000               0.000000000               0.000000000               0.000000000               0.000915683               0.005925866              -0.002652609              -0.000397354               0.002107719               0.001710365               0.000000000               0.000000000               0.000000000               0.000000000              -0.000417455               0.006858075              -0.002103089              -0.001013804               0.002623936               0.001610132               0.000000000               0.000000000               0.000000000               0.000000000              -0.001458270               0.007924669              -0.001445318              -0.001537431               0.003154007               0.001616575               0.000000000               0.000000000               0.000000000               0.000000000              -0.001540428               0.007983404              -0.001050418              -0.001575582               0.003186302               0.001610720               0.000000000               0.000000000               0.000000000               0.000000000              -0.001388706               0.007779522              -0.000795949              -0.001493201               0.003090882               0.001597680               0.000000000               0.000000000               0.000000000               0.000000000              -0.001173779               0.007504177              -0.000626003              -0.001378186               0.002960763               0.001582577               0.000000000               0.000000000               0.000000000               0.000000000              -0.000949142               0.007215123              -0.000506288              -0.001257816               0.002824289               0.001566473               0.000000000               0.000000000               0.000000000               0.000000000              -0.000735943               0.006934690              -0.000416610              -0.001142812               0.002692478               0.001549665               0.000000000               0.000000000               0.000000000               0.000000000              -0.000542421               0.006672322              -0.000340361              -0.001037446               0.002569900               0.001532455               0.000000000               0.000000000               0.000000000               0.000000000              -0.000377876               0.006443333              -0.000273453              -0.000947118               0.002463462               0.001516344               0.000000000               0.000000000               0.000000000               0.000000000              -0.000246474               0.006244433              -0.000213743              -0.000872980               0.002372450               0.001499471               0.000000000               0.000000000               0.000000000               0.000000000              -0.000151885               0.006062756              -0.000162019              -0.000814799               0.002292498               0.001477699               0.000000000               0.000000000               0.000000000               0.000000000              -0.000103912               0.005876197              -0.000120598              -0.000773490               0.002216543               0.001443053               0.000000000               0.000000000               0.000000000               0.000000000              -0.000090472               0.005686281              -0.000084586              -0.000744710               0.002143645               0.001398934               0.000000000               0.000000000               0.000000000               0.000000000              -0.000099170               0.005506125              -0.000048853              -0.000725453               0.002077174               0.001351721               0.000000000               0.000000000               0.000000000               0.000000000              -0.000115372               0.005331564              -0.000019899              -0.000709708               0.002013740               0.001304032               0.000000000               0.000000000               0.000000000               0.000000000              -0.000124117               0.005230530              -0.000004410              -0.000700358               0.001976945               0.001276587               0.000000000               0.000000000               0.000000000               0.000000000               0.000193012               0.004315647              -0.002004922              -0.000467077               0.001594226               0.001127149               0.000000000               0.000000000               0.000000000               0.000000000              -0.000760897               0.005585399              -0.001987568              -0.000983510               0.002189617               0.001206107               0.000000000               0.000000000               0.000000000               0.000000000              -0.001620959               0.006978905              -0.001781142              -0.001480220               0.002819684               0.001339465               0.000000000               0.000000000               0.000000000               0.000000000              -0.001643571               0.007327266              -0.001447418              -0.001532244               0.002953145               0.001420901               0.000000000               0.000000000               0.000000000               0.000000000              -0.001461500               0.007318578              -0.001172713              -0.001462882               0.002927129               0.001464247               0.000000000               0.000000000               0.000000000               0.000000000              -0.001232128               0.007180886              -0.000962285              -0.001359656               0.002846823               0.001487167               0.000000000               0.000000000               0.000000000               0.000000000              -0.000994922               0.006992714              -0.000801060              -0.001247182               0.002746609               0.001499427               0.000000000               0.000000000               0.000000000               0.000000000              -0.000771268               0.006782533              -0.000674501              -0.001137039               0.002639835               0.001502795               0.000000000               0.000000000               0.000000000               0.000000000              -0.000569812               0.006575001              -0.000565134              -0.001035552               0.002536829               0.001501277               0.000000000               0.000000000               0.000000000               0.000000000              -0.000396313               0.006383051              -0.000465161              -0.000946497               0.002443161               0.001496665               0.000000000               0.000000000               0.000000000               0.000000000              -0.000256430               0.006206352              -0.000374371              -0.000871953               0.002359414               0.001487461               0.000000000               0.000000000               0.000000000               0.000000000              -0.000155930               0.006029782              -0.000290867              -0.000812195               0.002280639               0.001468444               0.000000000               0.000000000               0.000000000               0.000000000              -0.000110610               0.005824614              -0.000214892              -0.000769554               0.002198037               0.001428483               0.000000000               0.000000000               0.000000000               0.000000000              -0.000110875               0.005611243              -0.000144082              -0.000742982               0.002118056               0.001375075               0.000000000               0.000000000               0.000000000               0.000000000              -0.000148823               0.005400796              -0.000078987              -0.000730906               0.002043883               0.001312977               0.000000000               0.000000000               0.000000000               0.000000000              -0.000214704               0.005194454              -0.000030916              -0.000729819               0.001974741               0.001244921               0.000000000               0.000000000               0.000000000               0.000000000              -0.000253202               0.005091298              -0.000010221              -0.000731361               0.001940870               0.001209508               0.000000000               0.000000000               0.000000000               0.000000000              -0.000778523               0.002846462              -0.001342815              -0.000647753               0.001164728               0.000516975               0.000000000               0.000000000               0.000000000               0.000000000              -0.001152822               0.004311575              -0.001804752              -0.000971254               0.001760928               0.000789674               0.000000000               0.000000000               0.000000000               0.000000000              -0.001697933               0.005891708              -0.002036857              -0.001373186               0.002421611               0.001048425               0.000000000               0.000000000               0.000000000               0.000000000              -0.001664832               0.006512395              -0.001819552              -0.001438359               0.002650229               0.001211870               0.000000000               0.000000000               0.000000000               0.000000000              -0.001470490               0.006726487              -0.001554405              -0.001392242               0.002706220               0.001313978               0.000000000               0.000000000               0.000000000               0.000000000              -0.001244317               0.006754771              -0.001320533              -0.001310962               0.002688555               0.001377593               0.000000000               0.000000000               0.000000000               0.000000000              -0.001013980               0.006694825              -0.001127201              -0.001217093               0.002637284               0.001420191               0.000000000               0.000000000               0.000000000               0.000000000              -0.000792732               0.006591667              -0.000966628              -0.001121230               0.002570944               0.001449713               0.000000000               0.000000000               0.000000000               0.000000000              -0.000588345               0.006464341              -0.000827962              -0.001028670               0.002497649               0.001468979               0.000000000               0.000000000               0.000000000               0.000000000              -0.000405216               0.006320647              -0.000705039              -0.000942035               0.002420873               0.001478838               0.000000000               0.000000000               0.000000000               0.000000000              -0.000248700               0.006178833              -0.000591289              -0.000865615               0.002348129               0.001482514               0.000000000               0.000000000               0.000000000               0.000000000              -0.000130315               0.006024932              -0.000478846              -0.000801983               0.002275618               0.001473635               0.000000000               0.000000000               0.000000000               0.000000000              -0.000068262               0.005833017              -0.000368002              -0.000754723               0.002195894               0.001441171               0.000000000               0.000000000               0.000000000               0.000000000              -0.000060819               0.005626851              -0.000259903              -0.000726162               0.002117652               0.001391490               0.000000000               0.000000000               0.000000000               0.000000000              -0.000102124               0.005414056              -0.000154409              -0.000715052               0.002043018               0.001327966               0.000000000               0.000000000               0.000000000               0.000000000              -0.000190870               0.005202053              -0.000066105              -0.000721831               0.001974611               0.001252779               0.000000000               0.000000000               0.000000000               0.000000000              -0.000261532               0.005090799              -0.000022627              -0.000734423               0.001941724               0.001207301               0.000000000               0.000000000               0.000000000               0.000000000              -0.001934527               0.001628306              -0.000715063              -0.000928984               0.000852424              -0.000076561               0.000000000               0.000000000               0.000000000               0.000000000              -0.001647666               0.003114259              -0.001532312              -0.001007155               0.001373794               0.000366638               0.000000000               0.000000000               0.000000000               0.000000000              -0.001730302               0.004684243              -0.002122506              -0.001234391               0.001972862               0.000738470               0.000000000               0.000000000               0.000000000               0.000000000              -0.001581945               0.005495594              -0.002055178              -0.001280176               0.002258571               0.000978395               0.000000000               0.000000000               0.000000000               0.000000000              -0.001365340               0.005913324              -0.001837699              -0.001251166               0.002388143               0.001136977               0.000000000               0.000000000               0.000000000               0.000000000              -0.001141802               0.006117786              -0.001610659              -0.001192897               0.002436873               0.001243977               0.000000000               0.000000000               0.000000000               0.000000000              -0.000925774               0.006209739              -0.001404226              -0.001123380               0.002444352               0.001320972               0.000000000               0.000000000               0.000000000               0.000000000              -0.000722125               0.006235342              -0.001223893              -0.001050212               0.002428497               0.001378285               0.000000000               0.000000000               0.000000000               0.000000000              -0.000526616               0.006209258              -0.001070667              -0.000973636               0.002394277               0.001420641               0.000000000               0.000000000               0.000000000               0.000000000              -0.000339438               0.006142045              -0.000936070              -0.000895043               0.002345675               0.001450632               0.000000000               0.000000000               0.000000000               0.000000000              -0.000172527               0.006056675              -0.000808542              -0.000821780               0.002292798               0.001471018               0.000000000               0.000000000               0.000000000               0.000000000              -0.000039210               0.005946046              -0.000679177              -0.000757958               0.002234648               0.001476690               0.000000000               0.000000000               0.000000000               0.000000000               0.000047076               0.005788726              -0.000543541              -0.000705936               0.002164868               0.001458932               0.000000000               0.000000000               0.000000000               0.000000000               0.000080988               0.005609574              -0.000402624              -0.000670825               0.002093448               0.001422623               0.000000000               0.000000000               0.000000000               0.000000000               0.000058228               0.005412135              -0.000258826              -0.000654680               0.002022254               0.001367574               0.000000000               0.000000000               0.000000000               0.000000000              -0.000020610               0.005204699              -0.000122675              -0.000658314               0.001954320               0.001296006               0.000000000               0.000000000               0.000000000               0.000000000              -0.000095436               0.005090986              -0.000050815              -0.000672160               0.001921032               0.001248872               0.000000000               0.000000000               0.000000000               0.000000000              -0.003189452               0.000715509              -0.000200969              -0.001285481               0.000666992              -0.000618489               0.000000000               0.000000000               0.000000000               0.000000000              -0.002215087               0.002052396              -0.001204635              -0.001087205               0.001046526              -0.000040679               0.000000000               0.000000000               0.000000000               0.000000000              -0.001746796               0.003452239              -0.002017730              -0.001086577               0.001512926               0.000426349               0.000000000               0.000000000               0.000000000               0.000000000              -0.001421868               0.004357395              -0.002091271              -0.001077873               0.001811741               0.000733867               0.000000000               0.000000000               0.000000000               0.000000000              -0.001158679               0.004938668              -0.001945871              -0.001051836               0.001996818               0.000944981               0.000000000               0.000000000               0.000000000               0.000000000              -0.000933219               0.005311149              -0.001751231              -0.001013849               0.002108314               0.001094465               0.000000000               0.000000000               0.000000000               0.000000000              -0.000732373               0.005555319              -0.001556087              -0.000969053               0.002174772               0.001205719               0.000000000               0.000000000               0.000000000               0.000000000              -0.000545377               0.005714087              -0.001378683              -0.000918776               0.002210935               0.001292159               0.000000000               0.000000000               0.000000000               0.000000000              -0.000365737               0.005803925              -0.001228746              -0.000862640               0.002222169               0.001359528               0.000000000               0.000000000               0.000000000               0.000000000              -0.000190339               0.005837301              -0.001094753              -0.000801038               0.002212760               0.001411722               0.000000000               0.000000000               0.000000000               0.000000000              -0.000021062               0.005832920              -0.000965685              -0.000737012               0.002189958               0.001452946               0.000000000               0.000000000               0.000000000               0.000000000               0.000126632               0.005784860              -0.000834289              -0.000675619               0.002153474               0.001477854               0.000000000               0.000000000               0.000000000               0.000000000               0.000235889               0.005678214              -0.000691691              -0.000621317               0.002099825               0.001478508               0.000000000               0.000000000               0.000000000               0.000000000               0.000307241               0.005539552              -0.000535640              -0.000577227               0.002038908               0.001461681               0.000000000               0.000000000               0.000000000               0.000000000               0.000332904               0.005375292              -0.000368441              -0.000547071               0.001974103               0.001427032               0.000000000               0.000000000               0.000000000               0.000000000               0.000299059               0.005190850              -0.000190252              -0.000536708               0.001909169               0.001372461               0.000000000               0.000000000               0.000000000               0.000000000               0.000248285               0.005087957              -0.000092444              -0.000542886               0.001876931               0.001334044               0.000000000               0.000000000               0.000000000               0.000000000              -0.004407050               0.000096146               0.000133890              -0.001664660               0.000586932              -0.001077729               0.000000000               0.000000000               0.000000000               0.000000000              -0.002793433               0.001180839              -0.000860360              -0.001195141               0.000791987              -0.000403153               0.000000000               0.000000000               0.000000000               0.000000000              -0.001766654               0.002309343              -0.001717522              -0.000951162               0.001086826               0.000135664               0.000000000               0.000000000               0.000000000               0.000000000              -0.001230355               0.003223718              -0.001883766              -0.000864347               0.001362677               0.000498330               0.000000000               0.000000000               0.000000000               0.000000000              -0.000894973               0.003915177              -0.001813348              -0.000825011               0.001580049               0.000755038               0.000000000               0.000000000               0.000000000               0.000000000              -0.000653107               0.004426773              -0.001669067              -0.000798261               0.001741663               0.000943402               0.000000000               0.000000000               0.000000000               0.000000000              -0.000458987               0.004804545              -0.001509387              -0.000772687               0.001859061               0.001086374               0.000000000               0.000000000               0.000000000               0.000000000              -0.000284945               0.005085554              -0.001359799              -0.000742548               0.001942683               0.001200136               0.000000000               0.000000000               0.000000000               0.000000000              -0.000121626               0.005292027              -0.001229180              -0.000707112               0.001999695               0.001292583               0.000000000               0.000000000               0.000000000               0.000000000               0.000035989               0.005434896              -0.001110083              -0.000665865               0.002033569               0.001367704               0.000000000               0.000000000               0.000000000               0.000000000               0.000197260               0.005525914              -0.000995871              -0.000616766               0.002047541               0.001430776               0.000000000               0.000000000               0.000000000               0.000000000               0.000352051               0.005557377              -0.000876007              -0.000562652               0.002039991               0.001477339               0.000000000               0.000000000               0.000000000               0.000000000               0.000488278               0.005519715              -0.000743853              -0.000506859               0.002008840               0.001501980               0.000000000               0.000000000               0.000000000               0.000000000               0.000608083               0.005434777              -0.000600035              -0.000451315               0.001962012               0.001510697               0.000000000               0.000000000               0.000000000               0.000000000               0.000706641               0.005312978              -0.000435418              -0.000399131               0.001904019               0.001504888               0.000000000               0.000000000               0.000000000               0.000000000               0.000767450               0.005165271              -0.000236234              -0.000357864               0.001841028               0.001483164               0.000000000               0.000000000               0.000000000               0.000000000               0.000791540               0.005089108              -0.000126467              -0.000339310               0.001809456               0.001470146               0.000000000               0.000000000               0.000000000               0.000000000              -0.005438351              -0.000271480               0.000257373              -0.002005445               0.000577984              -0.001427461               0.000000000               0.000000000               0.000000000               0.000000000              -0.003304488               0.000542179              -0.000536110              -0.001306954               0.000616373              -0.000690581               0.000000000               0.000000000               0.000000000               0.000000000              -0.001792652               0.001384211              -0.001246495              -0.000845270               0.000743154              -0.000102115               0.000000000               0.000000000               0.000000000               0.000000000              -0.001052260               0.002254494              -0.001428580              -0.000676408               0.000976959               0.000300551               0.000000000               0.000000000               0.000000000               0.000000000              -0.000635814               0.003000091              -0.001412664              -0.000613441               0.001204500               0.000591059               0.000000000               0.000000000               0.000000000               0.000000000              -0.000367644               0.003604741              -0.001323834              -0.000588458               0.001397721               0.000809262               0.000000000               0.000000000               0.000000000               0.000000000              -0.000169587               0.004085287              -0.001214721              -0.000574255               0.001553167               0.000978911               0.000000000               0.000000000               0.000000000               0.000000000              -0.000002757               0.004467582              -0.001108714              -0.000559481               0.001675672               0.001116192               0.000000000               0.000000000               0.000000000               0.000000000               0.000145344               0.004767946              -0.001012891              -0.000541488               0.001769795               0.001228307               0.000000000               0.000000000               0.000000000               0.000000000               0.000290490               0.005004039              -0.000925932              -0.000516570               0.001840186               0.001323616               0.000000000               0.000000000               0.000000000               0.000000000               0.000442995               0.005188592              -0.000839852              -0.000482450               0.001890330               0.001407880               0.000000000               0.000000000               0.000000000               0.000000000               0.000598780               0.005302191              -0.000747517              -0.000438230               0.001913456               0.001475226               0.000000000               0.000000000               0.000000000               0.000000000               0.000760280               0.005334088              -0.000646275              -0.000381655               0.001905230               0.001523575               0.000000000               0.000000000               0.000000000               0.000000000               0.000931906               0.005306731              -0.000533658              -0.000313876               0.001873518               0.001559642               0.000000000               0.000000000               0.000000000               0.000000000               0.001112997               0.005235026              -0.000398447              -0.000237004               0.001823992               0.001586989               0.000000000               0.000000000               0.000000000               0.000000000               0.001303734               0.005130137              -0.000222404              -0.000152366               0.001760817               0.001608451               0.000000000               0.000000000               0.000000000               0.000000000               0.001446692               0.005087866              -0.000127031              -0.000093474               0.001727096               0.001633623               0.000000000               0.000000000               0.000000000               0.000000000              -0.006135553              -0.000448768               0.000188826              -0.002244735               0.000598652              -0.001646083               0.000000000               0.000000000               0.000000000               0.000000000              -0.003663478               0.000158955              -0.000251379              -0.001393672               0.000517539              -0.000876133               0.000000000               0.000000000               0.000000000               0.000000000              -0.001818149               0.000785447              -0.000653967              -0.000779985               0.000521807              -0.000258179               0.000000000               0.000000000               0.000000000               0.000000000              -0.000924380               0.001602222              -0.000771029              -0.000546919               0.000716375               0.000169455               0.000000000               0.000000000               0.000000000               0.000000000              -0.000443124               0.002361628              -0.000776312              -0.000461374               0.000940993               0.000479618               0.000000000               0.000000000               0.000000000               0.000000000              -0.000152191               0.003013225              -0.000736032              -0.000433724               0.001148973               0.000715249               0.000000000               0.000000000               0.000000000               0.000000000               0.000051972               0.003557757              -0.000681566              -0.000425229               0.001327650               0.000902421               0.000000000               0.000000000               0.000000000               0.000000000               0.000214386               0.004004312              -0.000626139              -0.000420143               0.001474805               0.001054662               0.000000000               0.000000000               0.000000000               0.000000000               0.000357197               0.004367033              -0.000575649              -0.000411929               0.001592973               0.001181043               0.000000000               0.000000000               0.000000000               0.000000000               0.000495440               0.004665801              -0.000530946              -0.000397434               0.001687730               0.001290295               0.000000000               0.000000000               0.000000000               0.000000000               0.000641976               0.004913966              -0.000484257              -0.000373504               0.001762474               0.001388970               0.000000000               0.000000000               0.000000000               0.000000000               0.000800566               0.005087477              -0.000434630              -0.000335722               0.001807716               0.001471994               0.000000000               0.000000000               0.000000000               0.000000000               0.000975342               0.005169608              -0.000380672              -0.000280447               0.001816668               0.001536221               0.000000000               0.000000000               0.000000000               0.000000000               0.001181644               0.005188148              -0.000317749              -0.000205402               0.001797833               0.001592431               0.000000000               0.000000000               0.000000000               0.000000000               0.001431190               0.005161643              -0.000240073              -0.000108509               0.001756700               0.001648191               0.000000000               0.000000000               0.000000000               0.000000000               0.001737253               0.005095066              -0.000135851               0.000014586               0.001693476               0.001708062               0.000000000               0.000000000               0.000000000               0.000000000               0.001990629               0.005082894              -0.000080346               0.000111123               0.001657240               0.001768363               0.000000000               0.000000000               0.000000000               0.000000000               0.000000000               0.000000000               0.000000000               0.000000000               0.000000000               0.000000000               0.000000000               0.000000000               0.000000000               0.000000000               0.000000000               0.000000000               0.000000000               0.000000000               0.000000000               0.000000000               0.000000000               0.000000000               0.000000000               0.000000000               0.000000000               0.000000000               0.000000000               0.000000000               0.000000000               0.000000000               0.000000000               0.000000000               0.000000000               0.000000000               0.000000000               0.000000000               0.000000000               0.000000000               0.000000000               0.000000000               0.000000000               0.000000000               0.000000000               0.000000000               0.000000000               0.000000000               0.000000000               0.000000000               0.000000000               0.000000000               0.000000000               0.000000000               0.000000000               0.000000000               0.000000000               0.000000000               0.000000000               0.000000000               0.000000000               0.000000000               0.000000000               0.000000000               0.000000000               0.000000000               0.000000000               0.000000000               0.000000000               0.000000000               0.000000000               0.000000000               0.000000000               0.000000000               0.000000000               0.000000000               0.000000000               0.000000000               0.000000000               0.000000000               0.000000000               0.000000000               0.000000000               0.000000000               0.000000000               0.000000000               0.000000000               0.000000000               0.000000000               0.000000000               0.000000000               0.000000000               0.000000000               0.000000000               0.000000000               0.000000000               0.000000000               0.000000000               0.000000000               0.000000000               0.000000000               0.000000000               0.000000000               0.000000000               0.000000000               0.000000000               0.000000000               0.000000000               0.000000000               0.000000000               0.000000000               0.000000000               0.000000000               0.000000000               0.000000000               0.000000000               0.000000000               0.000000000               0.000000000               0.000000000               0.000000000               0.000000000               0.000000000               0.000000000               0.000000000               0.000000000               0.000000000               0.000000000               0.000000000               0.000000000               0.000000000               0.000000000               0.000000000               0.000000000               0.000000000               0.000000000               0.000000000               0.000000000               0.000000000               0.000000000               0.000000000               0.000000000               0.000000000               0.000000000               0.000000000               0.000000000               0.000000000               0.000000000               0.000000000               0.000000000               0.000000000               0.000000000               0.000000000               0.000000000               0.000000000               0.000000000               0.000000000               0.000000000               0.000000000               0.000000000               0.000000000               0.000000000               0.000000000               0.000000000               0.000000000               0.000000000               0.000000000               0.000000000               0.000000000               0.000000000               0.000000000               0.000000000               0.000000000               0.000000000               0.000000000               0.000000000               0.000000000               0.000000000               0.000000000               0.000000000               0.000000000               0.000000000               0.000000000               0.000000000               0.000000000               0.000000000               0.000000000               0.000000000               0.000000000               0.000000000               0.000000000               0.000000000               0.000000000               0.000000000               0.000000000               0.000000000               0.000000000               0.000000000               0.000000000               0.000000000               0.000000000               0.000000000               0.000000000               0.000000000               0.000000000               0.000000000               0.000000000               0.000000000               0.000000000               0.000000000               0.000000000               0.000000000               0.000000000               0.000000000               0.000000000               0.000000000               0.000000000               0.000000000               0.000000000               0.000000000               0.000000000               0.000000000               0.000000000               0.000000000               0.000000000               0.000000000               0.000000000               0.000000000               0.000000000               0.000000000               0.000000000               0.000000000               0.000000000               0.000000000               0.000000000               0.000000000               0.000000000               0.000000000               0.000000000               0.000000000               0.000000000               0.000000000               0.000000000               0.000000000               0.000000000               0.000000000               0.000000000               0.000000000               0.000000000               0.000000000               0.000000000               0.000000000               0.000000000               0.000000000               0.000000000               0.000000000               0.000000000               0.000000000               0.000000000               0.000000000               0.000000000               0.000000000               0.000000000               0.000000000               0.000000000               0.000000000               0.000000000               0.000000000               0.000000000               0.000000000               0.000000000               0.000000000               0.000000000               0.000000000               0.000000000               0.000000000               0.000000000               0.000000000               0.000000000               0.000000000               0.000000000               0.000000000               0.000000000               0.000000000               0.000000000               0.000000000               0.000000000               0.000000000               0.000000000               0.000000000               0.000000000               0.000000000               0.000000000               0.000000000               0.000000000               0.000000000               0.000000000               0.000000000               0.000000000               0.000000000               0.000000000               0.000000000               0.000000000               0.000000000               0.000000000               0.000000000               0.000000000               0.000000000               0.000000000               0.000000000               0.000000000               0.000000000               0.000000000               0.000000000               0.000000000               0.000000000               0.000000000               0.000000000               0.000000000               0.000000000               0.000000000               0.000000000               0.000000000               0.000000000               0.000000000               0.000000000               0.000000000               0.000000000               0.000000000               0.000000000               0.000000000               0.000000000               0.000000000               0.000000000               0.000000000               0.000000000               0.000000000               0.000000000               0.000000000               0.000000000               0.000000000               0.000000000               0.000000000               0.000000000               0.000000000               0.000000000               0.001786486               0.018741924               0.001323185              -0.001672805               0.006804847               0.005132043               0.000000000               0.000000000               0.000000000               0.000000000               0.001715714               0.014934955               0.000701411              -0.001223474               0.005386093               0.004162619               0.000000000               0.000000000               0.000000000               0.000000000               0.002188212               0.011902864               0.000079960              -0.000667277               0.004190007               0.003522731               0.000000000               0.000000000               0.000000000               0.000000000               0.002088880               0.010217312              -0.000186319              -0.000493833               0.003570348               0.003076515               0.000000000               0.000000000               0.000000000               0.000000000               0.001824053               0.009179471              -0.000296611              -0.000463413               0.003214264               0.002750851               0.000000000               0.000000000               0.000000000               0.000000000               0.001532800               0.008477293              -0.000333370              -0.000484860               0.002987356               0.002502496               0.000000000               0.000000000               0.000000000               0.000000000               0.001266275               0.007960853              -0.000336291              -0.000520252               0.002827009               0.002306756               0.000000000               0.000000000               0.000000000               0.000000000               0.001030167               0.007553228              -0.000325865              -0.000557840               0.002703664               0.002145824               0.000000000               0.000000000               0.000000000               0.000000000               0.000823580               0.007215793              -0.000313398              -0.000593130               0.002602950               0.002009820               0.000000000               0.000000000               0.000000000               0.000000000               0.000644345               0.006926311              -0.000300984              -0.000624158               0.002516800               0.001892642               0.000000000               0.000000000               0.000000000               0.000000000               0.000484809               0.006661195              -0.000282795              -0.000650844               0.002437324               0.001786480               0.000000000               0.000000000               0.000000000               0.000000000               0.000344714               0.006402396              -0.000258211              -0.000671030               0.002357787               0.001686757               0.000000000               0.000000000               0.000000000               0.000000000               0.000228319               0.006139150              -0.000231564              -0.000681773               0.002273621               0.001591848               0.000000000               0.000000000               0.000000000               0.000000000               0.000138388               0.005866002              -0.000201044              -0.000681353               0.002182432               0.001501079               0.000000000               0.000000000               0.000000000               0.000000000               0.000070805               0.005571478              -0.000157253              -0.000669881               0.002080434               0.001410553               0.000000000               0.000000000               0.000000000               0.000000000               0.000027185               0.005243035              -0.000089701              -0.000645183               0.001962722               0.001317539               0.000000000               0.000000000               0.000000000               0.000000000              -0.000013531               0.004995388              -0.000054212              -0.000629496               0.001874945               0.001245448               0.000000000               0.000000000               0.000000000               0.000000000               0.001967653               0.017656310               0.002480232              -0.001469166               0.006375100               0.004905933               0.000000000               0.000000000               0.000000000               0.000000000               0.001645420               0.014225501               0.001321571              -0.001161153               0.005128837               0.003967684               0.000000000               0.000000000               0.000000000               0.000000000               0.001852997               0.011588122               0.000172607              -0.000753640               0.004113882               0.003360242               0.000000000               0.000000000               0.000000000               0.000000000               0.001659179               0.010101898              -0.000303364              -0.000640544               0.003580780               0.002940236               0.000000000               0.000000000               0.000000000               0.000000000               0.001375360               0.009161178              -0.000494171              -0.000629386               0.003263491               0.002634105               0.000000000               0.000000000               0.000000000               0.000000000               0.001101577               0.008505134              -0.000555798              -0.000650049               0.003051699               0.002401650               0.000000000               0.000000000               0.000000000               0.000000000               0.000869803               0.008013705              -0.000560465              -0.000675535               0.002896387               0.002220851               0.000000000               0.000000000               0.000000000               0.000000000               0.000675229               0.007622878              -0.000543414              -0.000699647               0.002774150               0.002074502               0.000000000               0.000000000               0.000000000               0.000000000               0.000511716               0.007294603              -0.000522580              -0.000719930               0.002671487               0.001951557               0.000000000               0.000000000               0.000000000               0.000000000               0.000376196               0.007006064              -0.000500527              -0.000734683               0.002580225               0.001845543               0.000000000               0.000000000               0.000000000               0.000000000               0.000266174               0.006740634              -0.000471215              -0.000742762               0.002494443               0.001751681               0.000000000               0.000000000               0.000000000               0.000000000               0.000179403               0.006489004              -0.000433000              -0.000743848               0.002410929               0.001667081               0.000000000               0.000000000               0.000000000               0.000000000               0.000112622               0.006243424              -0.000390107              -0.000738193               0.002327185               0.001588992               0.000000000               0.000000000               0.000000000               0.000000000               0.000064986               0.006001066              -0.000337608              -0.000725762               0.002242256               0.001516494               0.000000000               0.000000000               0.000000000               0.000000000               0.000029187               0.005757580              -0.000261404              -0.000708751               0.002155424               0.001446674               0.000000000               0.000000000               0.000000000               0.000000000               0.000007574               0.005515605              -0.000148392              -0.000686609               0.002067386               0.001380778               0.000000000               0.000000000               0.000000000               0.000000000              -0.000013731               0.005353002              -0.000086888              -0.000674273               0.002009074               0.001334801               0.000000000               0.000000000               0.000000000               0.000000000               0.002178688               0.016013748               0.003334224              -0.001184710               0.005732765               0.004548055               0.000000000               0.000000000               0.000000000               0.000000000               0.001506884               0.013166889               0.001794944              -0.001080778               0.004749178               0.003668400               0.000000000               0.000000000               0.000000000               0.000000000               0.001340847               0.011110058               0.000286638              -0.000885937               0.003998628               0.003112691               0.000000000               0.000000000               0.000000000               0.000000000               0.001033843               0.009899267              -0.000310442              -0.000849715               0.003582961               0.002733246               0.000000000               0.000000000               0.000000000               0.000000000               0.000750582               0.009093539              -0.000542429              -0.000855222               0.003316223               0.002461001               0.000000000               0.000000000               0.000000000               0.000000000               0.000522680               0.008505274              -0.000615789              -0.000867152               0.003124113               0.002256962               0.000000000               0.000000000               0.000000000               0.000000000               0.000350240               0.008050478              -0.000622167              -0.000874968               0.002975122               0.002100154               0.000000000               0.000000000               0.000000000               0.000000000               0.000217863               0.007679894              -0.000601769              -0.000878286               0.002852701               0.001974415               0.000000000               0.000000000               0.000000000               0.000000000               0.000118965               0.007360225              -0.000575234              -0.000875414               0.002745189               0.001869774               0.000000000               0.000000000               0.000000000               0.000000000               0.000053819               0.007071898              -0.000548168              -0.000863803               0.002645210               0.001781407               0.000000000               0.000000000               0.000000000               0.000000000               0.000016735               0.006806642              -0.000514873              -0.000844553               0.002550376               0.001705823               0.000000000               0.000000000               0.000000000               0.000000000              -0.000000699               0.006562332              -0.000470727              -0.000820552               0.002460939               0.001640388               0.000000000               0.000000000               0.000000000               0.000000000              -0.000010085               0.006336585              -0.000418007              -0.000795853               0.002377458               0.001581605               0.000000000               0.000000000               0.000000000               0.000000000              -0.000014721               0.006130989              -0.000352749              -0.000771892               0.002300940               0.001529048               0.000000000               0.000000000               0.000000000               0.000000000              -0.000014713               0.005951385              -0.000263207              -0.000749439               0.002233588               0.001484149               0.000000000               0.000000000               0.000000000               0.000000000              -0.000010664               0.005806348              -0.000143479              -0.000729791               0.002178694               0.001448903               0.000000000               0.000000000               0.000000000               0.000000000              -0.000010723               0.005733920              -0.000078106              -0.000720759               0.002151541               0.001430781               0.000000000               0.000000000               0.000000000               0.000000000               0.002307779               0.014002533               0.003812193              -0.000884900               0.004962430               0.004077530               0.000000000               0.000000000               0.000000000               0.000000000               0.001270024               0.011892143               0.002095965              -0.001010258               0.004300760               0.003290502               0.000000000               0.000000000               0.000000000               0.000000000               0.000713768               0.010527188               0.000431782              -0.001048233               0.003858438               0.002810205               0.000000000               0.000000000               0.000000000               0.000000000               0.000329545               0.009622483              -0.000198461              -0.001079228               0.003567205               0.002487977               0.000000000               0.000000000               0.000000000               0.000000000               0.000081042               0.008958997              -0.000437445              -0.001089481               0.003349463               0.002259982               0.000000000               0.000000000               0.000000000               0.000000000              -0.000072769               0.008443445              -0.000511969              -0.001082716               0.003175359               0.002092643               0.000000000               0.000000000               0.000000000               0.000000000              -0.000161986               0.008024030              -0.000521625              -0.001063746               0.003029232               0.001965486               0.000000000               0.000000000               0.000000000               0.000000000              -0.000212398               0.007668485              -0.000506470              -0.001038207               0.002902205               0.001863998               0.000000000               0.000000000               0.000000000               0.000000000              -0.000233567               0.007356254              -0.000481905              -0.001007117               0.002787766               0.001780649               0.000000000               0.000000000               0.000000000               0.000000000              -0.000226913               0.007071670              -0.000453996              -0.000969049               0.002680216               0.001711167               0.000000000               0.000000000               0.000000000               0.000000000              -0.000195886               0.006811247              -0.000421019              -0.000924861               0.002578680               0.001653819               0.000000000               0.000000000               0.000000000               0.000000000              -0.000151828               0.006578219              -0.000377525              -0.000879210               0.002485788               0.001606577               0.000000000               0.000000000               0.000000000               0.000000000              -0.000110783               0.006373870              -0.000324228              -0.000838275               0.002404027               0.001565752               0.000000000               0.000000000               0.000000000               0.000000000              -0.000076896               0.006200616              -0.000261886              -0.000803911               0.002334822               0.001530911               0.000000000               0.000000000               0.000000000               0.000000000              -0.000044886               0.006065733              -0.000182511              -0.000775047               0.002280240               0.001505193               0.000000000               0.000000000               0.000000000               0.000000000              -0.000018020               0.005980122              -0.000090465              -0.000754271               0.002244778               0.001490507               0.000000000               0.000000000               0.000000000               0.000000000              -0.000005537               0.005953568              -0.000043367              -0.000746270               0.002233260               0.001486989               0.000000000               0.000000000               0.000000000               0.000000000               0.002259131               0.011825309               0.003913470              -0.000630992               0.004152060               0.003521068               0.000000000               0.000000000               0.000000000               0.000000000               0.000927435               0.010534024               0.002236849              -0.000968964               0.003834294               0.002865330               0.000000000               0.000000000               0.000000000               0.000000000               0.000048531               0.009894018               0.000618740              -0.001218550               0.003704156               0.002485606               0.000000000               0.000000000               0.000000000               0.000000000              -0.000345025               0.009280934               0.000027295              -0.001289498               0.003523446               0.002233949               0.000000000               0.000000000               0.000000000               0.000000000              -0.000513788               0.008748250              -0.000199969              -0.001286198               0.003344787               0.002058589               0.000000000               0.000000000               0.000000000               0.000000000              -0.000571153               0.008296032              -0.000279964              -0.001251183               0.003182377               0.001931194               0.000000000               0.000000000               0.000000000               0.000000000              -0.000565659               0.007906323              -0.000300725              -0.001200410               0.003035551               0.001835141               0.000000000               0.000000000               0.000000000               0.000000000              -0.000530575               0.007561023              -0.000301305              -0.001144091               0.002901679               0.001757589               0.000000000               0.000000000               0.000000000               0.000000000              -0.000474692               0.007253769              -0.000290077              -0.001084728               0.002779475               0.001694747               0.000000000               0.000000000               0.000000000               0.000000000              -0.000401763               0.006976920              -0.000271790              -0.001022774               0.002666541               0.001643768               0.000000000               0.000000000               0.000000000               0.000000000              -0.000319593               0.006731134              -0.000247350              -0.000961237               0.002564101               0.001602865               0.000000000               0.000000000               0.000000000               0.000000000              -0.000240505               0.006515642              -0.000214957              -0.000904642               0.002473407               0.001568764               0.000000000               0.000000000               0.000000000               0.000000000              -0.000170463               0.006333156              -0.000175166              -0.000855566               0.002396219               0.001540653               0.000000000               0.000000000               0.000000000               0.000000000              -0.000110198               0.006183865              -0.000129805              -0.000814305               0.002332703               0.001518397               0.000000000               0.000000000               0.000000000               0.000000000              -0.000058458               0.006072028              -0.000078320              -0.000780923               0.002284297               0.001503374               0.000000000               0.000000000               0.000000000               0.000000000              -0.000020427               0.006002189              -0.000030304              -0.000757932               0.002253354               0.001495422               0.000000000               0.000000000               0.000000000               0.000000000              -0.000008548               0.005973688              -0.000011234              -0.000749915               0.002241181               0.001491267               0.000000000               0.000000000               0.000000000               0.000000000               0.001981142               0.009662888               0.003698183              -0.000464936               0.003375908               0.002910972               0.000000000               0.000000000               0.000000000               0.000000000               0.000501209               0.009198297               0.002257293              -0.000961833               0.003386679               0.002424846               0.000000000               0.000000000               0.000000000               0.000000000              -0.000578155               0.009235828               0.000853686              -0.001371283               0.003535673               0.002164389               0.000000000               0.000000000               0.000000000               0.000000000              -0.000909521               0.008876428               0.000337685              -0.001450620               0.003442320               0.001991700               0.000000000               0.000000000               0.000000000               0.000000000              -0.000963407               0.008457764               0.000118099              -0.001418495               0.003292058               0.001873563               0.000000000               0.000000000               0.000000000               0.000000000              -0.000913529               0.008058415               0.000019004              -0.001349872               0.003136069               0.001786197               0.000000000               0.000000000               0.000000000               0.000000000              -0.000816902               0.007696617              -0.000025370              -0.001268412               0.002988318               0.001719905               0.000000000               0.000000000               0.000000000               0.000000000              -0.000704965               0.007366994              -0.000050332              -0.001185233               0.002850718               0.001665485               0.000000000               0.000000000               0.000000000               0.000000000              -0.000585392               0.007069157              -0.000062850              -0.001103164               0.002724084               0.001620920               0.000000000               0.000000000               0.000000000               0.000000000              -0.000465435               0.006802382              -0.000065993              -0.001024833               0.002609049               0.001584216               0.000000000               0.000000000               0.000000000               0.000000000              -0.000351758               0.006571147              -0.000062822              -0.000953300               0.002508127               0.001554827               0.000000000               0.000000000               0.000000000               0.000000000              -0.000252082               0.006374855              -0.000052673              -0.000891385               0.002422059               0.001530674               0.000000000               0.000000000               0.000000000               0.000000000              -0.000172147               0.006210264              -0.000037571              -0.000840836               0.002350346               0.001509510               0.000000000               0.000000000               0.000000000               0.000000000              -0.000110334               0.006076044              -0.000020388              -0.000800879               0.002292287               0.001491408               0.000000000               0.000000000               0.000000000               0.000000000              -0.000063185               0.005971566              -0.000004339              -0.000770138               0.002247215               0.001477077               0.000000000               0.000000000               0.000000000               0.000000000              -0.000027420               0.005892118               0.000004793              -0.000746795               0.002212952               0.001466156               0.000000000               0.000000000               0.000000000               0.000000000              -0.000023679               0.005841220               0.000000198              -0.000739030               0.002193397               0.001454367               0.000000000               0.000000000               0.000000000               0.000000000               0.001502448               0.007645043               0.003247512              -0.000392215               0.002679059               0.002286844               0.000000000               0.000000000               0.000000000               0.000000000               0.000025412               0.007962058               0.002197965              -0.000985727               0.002982568               0.001996841               0.000000000               0.000000000               0.000000000               0.000000000              -0.001094383               0.008569371               0.001129002              -0.001481562               0.003350282               0.001868721               0.000000000               0.000000000               0.000000000               0.000000000              -0.001305249               0.008416911               0.000685651              -0.001541578               0.003319468               0.001777890               0.000000000               0.000000000               0.000000000               0.000000000              -0.001241499               0.008098266               0.000456069              -0.001477842               0.003192009               0.001714167               0.000000000               0.000000000               0.000000000               0.000000000              -0.001094000               0.007754234               0.000325061              -0.001379526               0.003044561               0.001665035               0.000000000               0.000000000               0.000000000               0.000000000              -0.000921339               0.007423452               0.000245504              -0.001273430               0.002898936               0.001625506               0.000000000               0.000000000               0.000000000               0.000000000              -0.000748589               0.007116100               0.000189865              -0.001170230               0.002762086               0.001591856               0.000000000               0.000000000               0.000000000               0.000000000              -0.000586279               0.006832811               0.000146953              -0.001073953               0.002635565               0.001561612               0.000000000               0.000000000               0.000000000               0.000000000              -0.000439542               0.006582661               0.000114091              -0.000987659               0.002523418               0.001535759               0.000000000               0.000000000               0.000000000               0.000000000              -0.000313097               0.006368568               0.000086335              -0.000913480               0.002427328               0.001513848               0.000000000               0.000000000               0.000000000               0.000000000              -0.000213423               0.006185638               0.000065463              -0.000853236               0.002346271               0.001493035               0.000000000               0.000000000               0.000000000               0.000000000              -0.000143029               0.006025192               0.000050774              -0.000806783               0.002277305               0.001470522               0.000000000               0.000000000               0.000000000               0.000000000              -0.000093682               0.005879488               0.000037547              -0.000770065               0.002216498               0.001446433               0.000000000               0.000000000               0.000000000               0.000000000              -0.000060575               0.005746436               0.000021992              -0.000741018               0.002162466               0.001421447               0.000000000               0.000000000               0.000000000               0.000000000              -0.000034081               0.005625993               0.000007337              -0.000716028               0.002113988               0.001397960               0.000000000               0.000000000               0.000000000               0.000000000              -0.000033668               0.005543765              -0.000007700              -0.000705594               0.002083101               0.001377507               0.000000000               0.000000000               0.000000000               0.000000000               0.000915683               0.005925866               0.002652609              -0.000397354               0.002107719               0.001710365               0.000000000               0.000000000               0.000000000               0.000000000              -0.000417455               0.006858075               0.002103089              -0.001013804               0.002623936               0.001610132               0.000000000               0.000000000               0.000000000               0.000000000              -0.001458270               0.007924669               0.001445318              -0.001537431               0.003154007               0.001616575               0.000000000               0.000000000               0.000000000               0.000000000              -0.001540428               0.007983404               0.001050418              -0.001575582               0.003186302               0.001610720               0.000000000               0.000000000               0.000000000               0.000000000              -0.001388706               0.007779522               0.000795949              -0.001493201               0.003090882               0.001597680               0.000000000               0.000000000               0.000000000               0.000000000              -0.001173779               0.007504177               0.000626003              -0.001378186               0.002960763               0.001582577               0.000000000               0.000000000               0.000000000               0.000000000              -0.000949142               0.007215123               0.000506288              -0.001257816               0.002824289               0.001566473               0.000000000               0.000000000               0.000000000               0.000000000              -0.000735943               0.006934690               0.000416610              -0.001142812               0.002692478               0.001549665               0.000000000               0.000000000               0.000000000               0.000000000              -0.000542421               0.006672322               0.000340361              -0.001037446               0.002569900               0.001532455               0.000000000               0.000000000               0.000000000               0.000000000              -0.000377876               0.006443333               0.000273453              -0.000947118               0.002463462               0.001516344               0.000000000               0.000000000               0.000000000               0.000000000              -0.000246474               0.006244433               0.000213743              -0.000872980               0.002372450               0.001499471               0.000000000               0.000000000               0.000000000               0.000000000              -0.000151885               0.006062756               0.000162019              -0.000814799               0.002292498               0.001477699               0.000000000               0.000000000               0.000000000               0.000000000              -0.000103912               0.005876197               0.000120598              -0.000773490               0.002216543               0.001443053               0.000000000               0.000000000               0.000000000               0.000000000              -0.000090472               0.005686281               0.000084586              -0.000744710               0.002143645               0.001398934               0.000000000               0.000000000               0.000000000               0.000000000              -0.000099170               0.005506125               0.000048853              -0.000725453               0.002077174               0.001351721               0.000000000               0.000000000               0.000000000               0.000000000              -0.000115372               0.005331564               0.000019899              -0.000709708               0.002013740               0.001304032               0.000000000               0.000000000               0.000000000               0.000000000              -0.000124117               0.005230530               0.000004410              -0.000700358               0.001976945               0.001276587               0.000000000               0.000000000               0.000000000               0.000000000               0.000193012               0.004315647               0.002004922              -0.000467077               0.001594226               0.001127149               0.000000000               0.000000000               0.000000000               0.000000000              -0.000760897               0.005585399               0.001987568              -0.000983510               0.002189617               0.001206107               0.000000000               0.000000000               0.000000000               0.000000000              -0.001620959               0.006978905               0.001781142              -0.001480220               0.002819684               0.001339465               0.000000000               0.000000000               0.000000000               0.000000000              -0.001643571               0.007327266               0.001447418              -0.001532244               0.002953145               0.001420901               0.000000000               0.000000000               0.000000000               0.000000000              -0.001461500               0.007318578               0.001172713              -0.001462882               0.002927129               0.001464247               0.000000000               0.000000000               0.000000000               0.000000000              -0.001232128               0.007180886               0.000962285              -0.001359656               0.002846823               0.001487167               0.000000000               0.000000000               0.000000000               0.000000000              -0.000994922               0.006992714               0.000801060              -0.001247182               0.002746609               0.001499427               0.000000000               0.000000000               0.000000000               0.000000000              -0.000771268               0.006782533               0.000674501              -0.001137039               0.002639835               0.001502795               0.000000000               0.000000000               0.000000000               0.000000000              -0.000569812               0.006575001               0.000565134              -0.001035552               0.002536829               0.001501277               0.000000000               0.000000000               0.000000000               0.000000000              -0.000396313               0.006383051               0.000465161              -0.000946497               0.002443161               0.001496665               0.000000000               0.000000000               0.000000000               0.000000000              -0.000256430               0.006206352               0.000374371              -0.000871953               0.002359414               0.001487461               0.000000000               0.000000000               0.000000000               0.000000000              -0.000155930               0.006029782               0.000290867              -0.000812195               0.002280639               0.001468444               0.000000000               0.000000000               0.000000000               0.000000000              -0.000110610               0.005824614               0.000214892              -0.000769554               0.002198037               0.001428483               0.000000000               0.000000000               0.000000000               0.000000000              -0.000110875               0.005611243               0.000144082              -0.000742982               0.002118056               0.001375075               0.000000000               0.000000000               0.000000000               0.000000000              -0.000148823               0.005400796               0.000078987              -0.000730906               0.002043883               0.001312977               0.000000000               0.000000000               0.000000000               0.000000000              -0.000214704               0.005194454               0.000030916              -0.000729819               0.001974741               0.001244921               0.000000000               0.000000000               0.000000000               0.000000000              -0.000253202               0.005091298               0.000010221              -0.000731361               0.001940870               0.001209508               0.000000000               0.000000000               0.000000000               0.000000000              -0.000778523               0.002846462               0.001342815              -0.000647753               0.001164728               0.000516975               0.000000000               0.000000000               0.000000000               0.000000000              -0.001152822               0.004311575               0.001804752              -0.000971254               0.001760928               0.000789674               0.000000000               0.000000000               0.000000000               0.000000000              -0.001697933               0.005891708               0.002036857              -0.001373186               0.002421611               0.001048425               0.000000000               0.000000000               0.000000000               0.000000000              -0.001664832               0.006512395               0.001819552              -0.001438359               0.002650229               0.001211870               0.000000000               0.000000000               0.000000000               0.000000000              -0.001470490               0.006726487               0.001554405              -0.001392242               0.002706220               0.001313978               0.000000000               0.000000000               0.000000000               0.000000000              -0.001244317               0.006754771               0.001320533              -0.001310962               0.002688555               0.001377593               0.000000000               0.000000000               0.000000000               0.000000000              -0.001013980               0.006694825               0.001127201              -0.001217093               0.002637284               0.001420191               0.000000000               0.000000000               0.000000000               0.000000000              -0.000792732               0.006591667               0.000966628              -0.001121230               0.002570944               0.001449713               0.000000000               0.000000000               0.000000000               0.000000000              -0.000588345               0.006464341               0.000827962              -0.001028670               0.002497649               0.001468979               0.000000000               0.000000000               0.000000000               0.000000000              -0.000405216               0.006320647               0.000705039              -0.000942035               0.002420873               0.001478838               0.000000000               0.000000000               0.000000000               0.000000000              -0.000248700               0.006178833               0.000591289              -0.000865615               0.002348129               0.001482514               0.000000000               0.000000000               0.000000000               0.000000000              -0.000130315               0.006024932               0.000478846              -0.000801983               0.002275618               0.001473635               0.000000000               0.000000000               0.000000000               0.000000000              -0.000068262               0.005833017               0.000368002              -0.000754723               0.002195894               0.001441171               0.000000000               0.000000000               0.000000000               0.000000000              -0.000060819               0.005626851               0.000259903              -0.000726162               0.002117652               0.001391490               0.000000000               0.000000000               0.000000000               0.000000000              -0.000102124               0.005414056               0.000154409              -0.000715052               0.002043018               0.001327966               0.000000000               0.000000000               0.000000000               0.000000000              -0.000190870               0.005202053               0.000066105              -0.000721831               0.001974611               0.001252779               0.000000000               0.000000000               0.000000000               0.000000000              -0.000261532               0.005090799               0.000022627              -0.000734423               0.001941724               0.001207301               0.000000000               0.000000000               0.000000000               0.000000000              -0.001934527               0.001628306               0.000715063              -0.000928984               0.000852424              -0.000076561               0.000000000               0.000000000               0.000000000               0.000000000              -0.001647666               0.003114259               0.001532312              -0.001007155               0.001373794               0.000366638               0.000000000               0.000000000               0.000000000               0.000000000              -0.001730302               0.004684243               0.002122506              -0.001234391               0.001972862               0.000738470               0.000000000               0.000000000               0.000000000               0.000000000              -0.001581945               0.005495594               0.002055178              -0.001280176               0.002258571               0.000978395               0.000000000               0.000000000               0.000000000               0.000000000              -0.001365340               0.005913324               0.001837699              -0.001251166               0.002388143               0.001136977               0.000000000               0.000000000               0.000000000               0.000000000              -0.001141802               0.006117786               0.001610659              -0.001192897               0.002436873               0.001243977               0.000000000               0.000000000               0.000000000               0.000000000              -0.000925774               0.006209739               0.001404226              -0.001123380               0.002444352               0.001320972               0.000000000               0.000000000               0.000000000               0.000000000              -0.000722125               0.006235342               0.001223893              -0.001050212               0.002428497               0.001378285               0.000000000               0.000000000               0.000000000               0.000000000              -0.000526616               0.006209258               0.001070667              -0.000973636               0.002394277               0.001420641               0.000000000               0.000000000               0.000000000               0.000000000              -0.000339438               0.006142045               0.000936070              -0.000895043               0.002345675               0.001450632               0.000000000               0.000000000               0.000000000               0.000000000              -0.000172527               0.006056675               0.000808542              -0.000821780               0.002292798               0.001471018               0.000000000               0.000000000               0.000000000               0.000000000              -0.000039210               0.005946046               0.000679177              -0.000757958               0.002234648               0.001476690               0.000000000               0.000000000               0.000000000               0.000000000               0.000047076               0.005788726               0.000543541              -0.000705936               0.002164868               0.001458932               0.000000000               0.000000000               0.000000000               0.000000000               0.000080988               0.005609574               0.000402624              -0.000670825               0.002093448               0.001422623               0.000000000               0.000000000               0.000000000               0.000000000               0.000058228               0.005412135               0.000258826              -0.000654680               0.002022254               0.001367574               0.000000000               0.000000000               0.000000000               0.000000000              -0.000020610               0.005204699               0.000122675              -0.000658314               0.001954320               0.001296006               0.000000000               0.000000000               0.000000000               0.000000000              -0.000095436               0.005090986               0.000050815              -0.000672160               0.001921032               0.001248872               0.000000000               0.000000000               0.000000000               0.000000000              -0.003189452               0.000715509               0.000200969              -0.001285481               0.000666992              -0.000618489               0.000000000               0.000000000               0.000000000               0.000000000              -0.002215087               0.002052396               0.001204635              -0.001087205               0.001046526              -0.000040679               0.000000000               0.000000000               0.000000000               0.000000000              -0.001746796               0.003452239               0.002017730              -0.001086577               0.001512926               0.000426349               0.000000000               0.000000000               0.000000000               0.000000000              -0.001421868               0.004357395               0.002091271              -0.001077873               0.001811741               0.000733867               0.000000000               0.000000000               0.000000000               0.000000000              -0.001158679               0.004938668               0.001945871              -0.001051836               0.001996818               0.000944981               0.000000000               0.000000000               0.000000000               0.000000000              -0.000933219               0.005311149               0.001751231              -0.001013849               0.002108314               0.001094465               0.000000000               0.000000000               0.000000000               0.000000000              -0.000732373               0.005555319               0.001556087              -0.000969053               0.002174772               0.001205719               0.000000000               0.000000000               0.000000000               0.000000000              -0.000545377               0.005714087               0.001378683              -0.000918776               0.002210935               0.001292159               0.000000000               0.000000000               0.000000000               0.000000000              -0.000365737               0.005803925               0.001228746              -0.000862640               0.002222169               0.001359528               0.000000000               0.000000000               0.000000000               0.000000000              -0.000190339               0.005837301               0.001094753              -0.000801038               0.002212760               0.001411722               0.000000000               0.000000000               0.000000000               0.000000000              -0.000021062               0.005832920               0.000965685              -0.000737012               0.002189958               0.001452946               0.000000000               0.000000000               0.000000000               0.000000000               0.000126632               0.005784860               0.000834289              -0.000675619               0.002153474               0.001477854               0.000000000               0.000000000               0.000000000               0.000000000               0.000235889               0.005678214               0.000691691              -0.000621317               0.002099825               0.001478508               0.000000000               0.000000000               0.000000000               0.000000000               0.000307241               0.005539552               0.000535640              -0.000577227               0.002038908               0.001461681               0.000000000               0.000000000               0.000000000               0.000000000               0.000332904               0.005375292               0.000368441              -0.000547071               0.001974103               0.001427032               0.000000000               0.000000000               0.000000000               0.000000000               0.000299059               0.005190850               0.000190252              -0.000536708               0.001909169               0.001372461               0.000000000               0.000000000               0.000000000               0.000000000               0.000248285               0.005087957               0.000092444              -0.000542886               0.001876931               0.001334044               0.000000000               0.000000000               0.000000000               0.000000000              -0.004407050               0.000096146              -0.000133890              -0.001664660               0.000586932              -0.001077729               0.000000000               0.000000000               0.000000000               0.000000000              -0.002793433               0.001180839               0.000860360              -0.001195141               0.000791987              -0.000403153               0.000000000               0.000000000               0.000000000               0.000000000              -0.001766654               0.002309343               0.001717522              -0.000951162               0.001086826               0.000135664               0.000000000               0.000000000               0.000000000               0.000000000              -0.001230355               0.003223718               0.001883766              -0.000864347               0.001362677               0.000498330               0.000000000               0.000000000               0.000000000               0.000000000              -0.000894973               0.003915177               0.001813348              -0.000825011               0.001580049               0.000755038               0.000000000               0.000000000               0.000000000               0.000000000              -0.000653107               0.004426773               0.001669067              -0.000798261               0.001741663               0.000943402               0.000000000               0.000000000               0.000000000               0.000000000              -0.000458987               0.004804545               0.001509387              -0.000772687               0.001859061               0.001086374               0.000000000               0.000000000               0.000000000               0.000000000              -0.000284945               0.005085554               0.001359799              -0.000742548               0.001942683               0.001200136               0.000000000               0.000000000               0.000000000               0.000000000              -0.000121626               0.005292027               0.001229180              -0.000707112               0.001999695               0.001292583               0.000000000               0.000000000               0.000000000               0.000000000               0.000035989               0.005434896               0.001110083              -0.000665865               0.002033569               0.001367704               0.000000000               0.000000000               0.000000000               0.000000000               0.000197260               0.005525914               0.000995871              -0.000616766               0.002047541               0.001430776               0.000000000               0.000000000               0.000000000               0.000000000               0.000352051               0.005557377               0.000876007              -0.000562652               0.002039991               0.001477339               0.000000000               0.000000000               0.000000000               0.000000000               0.000488278               0.005519715               0.000743853              -0.000506859               0.002008840               0.001501980               0.000000000               0.000000000               0.000000000               0.000000000               0.000608083               0.005434777               0.000600035              -0.000451315               0.001962012               0.001510697               0.000000000               0.000000000               0.000000000               0.000000000               0.000706641               0.005312978               0.000435418              -0.000399131               0.001904019               0.001504888               0.000000000               0.000000000               0.000000000               0.000000000               0.000767450               0.005165271               0.000236234              -0.000357864               0.001841028               0.001483164               0.000000000               0.000000000               0.000000000               0.000000000               0.000791540               0.005089108               0.000126467              -0.000339310               0.001809456               0.001470146               0.000000000               0.000000000               0.000000000               0.000000000              -0.005438351              -0.000271480              -0.000257373              -0.002005445               0.000577984              -0.001427461               0.000000000               0.000000000               0.000000000               0.000000000              -0.003304488               0.000542179               0.000536110              -0.001306954               0.000616373              -0.000690581               0.000000000               0.000000000               0.000000000               0.000000000              -0.001792652               0.001384211               0.001246495              -0.000845270               0.000743154              -0.000102115               0.000000000               0.000000000               0.000000000               0.000000000              -0.001052260               0.002254494               0.001428580              -0.000676408               0.000976959               0.000300551               0.000000000               0.000000000               0.000000000               0.000000000              -0.000635814               0.003000091               0.001412664              -0.000613441               0.001204500               0.000591059               0.000000000               0.000000000               0.000000000               0.000000000              -0.000367644               0.003604741               0.001323834              -0.000588458               0.001397721               0.000809262               0.000000000               0.000000000               0.000000000               0.000000000              -0.000169587               0.004085287               0.001214721              -0.000574255               0.001553167               0.000978911               0.000000000               0.000000000               0.000000000               0.000000000              -0.000002757               0.004467582               0.001108714              -0.000559481               0.001675672               0.001116192               0.000000000               0.000000000               0.000000000               0.000000000               0.000145344               0.004767946               0.001012891              -0.000541488               0.001769795               0.001228307               0.000000000               0.000000000               0.000000000               0.000000000               0.000290490               0.005004039               0.000925932              -0.000516570               0.001840186               0.001323616               0.000000000               0.000000000               0.000000000               0.000000000               0.000442995               0.005188592               0.000839852              -0.000482450               0.001890330               0.001407880               0.000000000               0.000000000               0.000000000               0.000000000               0.000598780               0.005302191               0.000747517              -0.000438230               0.001913456               0.001475226               0.000000000               0.000000000               0.000000000               0.000000000               0.000760280               0.005334088               0.000646275              -0.000381655               0.001905230               0.001523575               0.000000000               0.000000000               0.000000000               0.000000000               0.000931906               0.005306731               0.000533658              -0.000313876               0.001873518               0.001559642               0.000000000               0.000000000               0.000000000               0.000000000               0.001112997               0.005235026               0.000398447              -0.000237004               0.001823992               0.001586989               0.000000000               0.000000000               0.000000000               0.000000000               0.001303734               0.005130137               0.000222404              -0.000152366               0.001760817               0.001608451               0.000000000               0.000000000               0.000000000               0.000000000               0.001446692               0.005087866               0.000127031              -0.000093474               0.001727096               0.001633623               0.000000000               0.000000000               0.000000000               0.000000000              -0.006135553              -0.000448768              -0.000188826              -0.002244735               0.000598652              -0.001646083               0.000000000               0.000000000               0.000000000               0.000000000              -0.003663478               0.000158955               0.000251379              -0.001393672               0.000517539              -0.000876133               0.000000000               0.000000000               0.000000000               0.000000000              -0.001818149               0.000785447               0.000653967              -0.000779985               0.000521807              -0.000258179               0.000000000               0.000000000               0.000000000               0.000000000              -0.000924380               0.001602222               0.000771029              -0.000546919               0.000716375               0.000169455               0.000000000               0.000000000               0.000000000               0.000000000              -0.000443124               0.002361628               0.000776312              -0.000461374               0.000940993               0.000479618               0.000000000               0.000000000               0.000000000               0.000000000              -0.000152191               0.003013225               0.000736032              -0.000433724               0.001148973               0.000715249               0.000000000               0.000000000               0.000000000               0.000000000               0.000051972               0.003557757               0.000681566              -0.000425229               0.001327650               0.000902421               0.000000000               0.000000000               0.000000000               0.000000000               0.000214386               0.004004312               0.000626139              -0.000420143               0.001474805               0.001054662               0.000000000               0.000000000               0.000000000               0.000000000               0.000357197               0.004367033               0.000575649              -0.000411929               0.001592973               0.001181043               0.000000000               0.000000000               0.000000000               0.000000000               0.000495440               0.004665801               0.000530946              -0.000397434               0.001687730               0.001290295               0.000000000               0.000000000               0.000000000               0.000000000               0.000641976               0.004913966               0.000484257              -0.000373504               0.001762474               0.001388970               0.000000000               0.000000000               0.000000000               0.000000000               0.000800566               0.005087477               0.000434630              -0.000335722               0.001807716               0.001471994               0.000000000               0.000000000               0.000000000               0.000000000               0.000975342               0.005169608               0.000380672              -0.000280447               0.001816668               0.001536221               0.000000000               0.000000000               0.000000000               0.000000000               0.001181644               0.005188148               0.000317749              -0.000205402               0.001797833               0.001592431               0.000000000               0.000000000               0.000000000               0.000000000               0.001431190               0.005161643               0.000240073              -0.000108509               0.001756700               0.001648191               0.000000000               0.000000000               0.000000000               0.000000000               0.001737253               0.005095066               0.000135851               0.000014586               0.001693476               0.001708062               0.000000000               0.000000000               0.000000000               0.000000000               0.001990629               0.005082894               0.000080346               0.000111123               0.001657240               0.001768363               0.000000000               0.000000000               0.000000000               0.000000000               0.000000000               0.000000000               0.000000000               0.000000000               0.000000000               0.000000000               0.000000000               0.000000000               0.000000000               0.000000000               0.000000000               0.000000000               0.000000000               0.000000000               0.000000000               0.000000000               0.000000000               0.000000000               0.000000000               0.000000000               0.000000000               0.000000000               0.000000000               0.000000000               0.000000000               0.000000000               0.000000000               0.000000000               0.000000000               0.000000000               0.000000000               0.000000000               0.000000000               0.000000000               0.000000000               0.000000000               0.000000000               0.000000000               0.000000000               0.000000000               0.000000000               0.000000000               0.000000000               0.000000000               0.000000000               0.000000000               0.000000000               0.000000000               0.000000000               0.000000000               0.000000000               0.000000000               0.000000000               0.000000000               0.000000000               0.000000000               0.000000000               0.000000000               0.000000000               0.000000000               0.000000000               0.000000000               0.000000000               0.000000000               0.000000000               0.000000000               0.000000000               0.000000000               0.000000000               0.000000000               0.000000000               0.000000000               0.000000000               0.000000000               0.000000000               0.000000000               0.000000000               0.000000000               0.000000000               0.000000000               0.000000000               0.000000000               0.000000000               0.000000000               0.000000000               0.000000000               0.000000000               0.000000000               0.000000000               0.000000000               0.000000000               0.000000000               0.000000000               0.000000000               0.000000000               0.000000000               0.000000000               0.000000000               0.000000000               0.000000000               0.000000000               0.000000000               0.000000000               0.000000000               0.000000000               0.000000000               0.000000000               0.000000000               0.000000000               0.000000000               0.000000000               0.000000000               0.000000000               0.000000000               0.000000000               0.000000000               0.000000000               0.000000000               0.000000000               0.000000000               0.000000000               0.000000000               0.000000000               0.000000000               0.000000000               0.000000000               0.000000000               0.000000000               0.000000000               0.000000000               0.000000000               0.000000000               0.000000000               0.000000000               0.000000000               0.000000000               0.000000000               0.000000000               0.000000000               0.000000000               0.000000000               0.000000000               0.000000000               0.000000000               0.000000000               0.000000000               0.000000000               0.000000000               0.000000000               0.000000000               0.000000000               0.000000000               0.000000000               0.000000000               0.000000000               0.000000000               0.000000000               0.000000000               0.000000000               0.000000000               0.000000000               0.000000000               0.000000000               0.000000000               0.000000000               0.000000000               0.000000000               0.000000000               0.000000000               0.000000000 </DataArray>
</PointData>
</Piece>
</UnstructuredGrid> </VTKFile>
