<?xml version="1.0"?>
<VTKFile type="UnstructuredGrid" version="0.1">
<UnstructuredGrid>
<Piece NumberOfPoints="      1156" NumberOfCells="      1024">
<Points>
<DataArray type="Float64"                                    Name="coordinates"                                                      NumberOfComponents=" 3" format="ascii">
              0.133000000               0.000000000               0.000000000               0.155937500               0.000000000               0.000000000               0.178875000               0.000000000               0.000000000               0.201812500               0.000000000               0.000000000               0.224750000               0.000000000               0.000000000               0.247687500               0.000000000               0.000000000               0.270625000               0.000000000               0.000000000               0.293562500               0.000000000               0.000000000               0.316500000               0.000000000               0.000000000               0.339437500               0.000000000               0.000000000               0.362375000               0.000000000               0.000000000               0.385312500               0.000000000               0.000000000               0.408250000               0.000000000               0.000000000               0.431187500               0.000000000               0.000000000               0.454125000               0.000000000               0.000000000               0.477062500               0.000000000               0.000000000               0.500000000               0.000000000               0.000000000               0.132359569               0.013036280               0.000000000               0.155337096               0.016127762               0.000000000               0.178314623               0.019219245               0.000000000               0.201292150               0.022310727               0.000000000               0.224269676               0.025402210               0.000000000               0.247247203               0.028493692               0.000000000               0.270224730               0.031585175               0.000000000               0.293202257               0.034676657               0.000000000               0.316179784               0.037768140               0.000000000               0.339157311               0.040859622               0.000000000               0.362134838               0.043951105               0.000000000               0.385112365               0.047042587               0.000000000               0.408089892               0.050134070               0.000000000               0.431067419               0.053225552               0.000000000               0.454044946               0.056317035               0.000000000               0.477022473               0.059408517               0.000000000               0.500000000               0.062500000               0.000000000               0.130444442               0.025947013               0.000000000               0.153541665               0.032137825               0.000000000               0.176638887               0.038328636               0.000000000               0.199736109               0.044519448               0.000000000               0.222833332               0.050710260               0.000000000               0.245930554               0.056901071               0.000000000               0.269027776               0.063091883               0.000000000               0.292124999               0.069282695               0.000000000               0.315222221               0.075473506               0.000000000               0.338319444               0.081664318               0.000000000               0.361416666               0.087855130               0.000000000               0.384513888               0.094045942               0.000000000               0.407611111               0.100236753               0.000000000               0.430708333               0.106427565               0.000000000               0.453805555               0.112618377               0.000000000               0.476902778               0.118809188               0.000000000               0.500000000               0.125000000               0.000000000               0.127273065               0.038607862               0.000000000               0.150568498               0.047913621               0.000000000               0.173863932               0.057219379               0.000000000               0.197159365               0.066525138               0.000000000               0.220454798               0.075830897               0.000000000               0.243750232               0.085136655               0.000000000               0.267045665               0.094442414               0.000000000               0.290341099               0.103748172               0.000000000               0.313636532               0.113053931               0.000000000               0.336931966               0.122359690               0.000000000               0.360227399               0.131665448               0.000000000               0.383522833               0.140971207               0.000000000               0.406818266               0.150276966               0.000000000               0.430113700               0.159582724               0.000000000               0.453409133               0.168888483               0.000000000               0.476704567               0.178194241               0.000000000               0.500000000               0.187500000               0.000000000               0.122875978               0.050896897               0.000000000               0.146446229               0.063340840               0.000000000               0.170016481               0.075784784               0.000000000               0.193586732               0.088228728               0.000000000               0.217156983               0.100672672               0.000000000               0.240727235               0.113116616               0.000000000               0.264297486               0.125560560               0.000000000               0.287867738               0.138004504               0.000000000               0.311437989               0.150448448               0.000000000               0.335008240               0.162892392               0.000000000               0.358578492               0.175336336               0.000000000               0.382148743               0.187780280               0.000000000               0.405718994               0.200224224               0.000000000               0.429289246               0.212668168               0.000000000               0.452859497               0.225112112               0.000000000               0.476429749               0.237556056               0.000000000               0.500000000               0.250000000               0.000000000               0.117295528               0.062695766               0.000000000               0.141214558               0.078308531               0.000000000               0.165133587               0.093921295               0.000000000               0.189052617               0.109534060               0.000000000               0.212971646               0.125146824               0.000000000               0.236890676               0.140759589               0.000000000               0.260809705               0.156372354               0.000000000               0.284728735               0.171985118               0.000000000               0.308647764               0.187597883               0.000000000               0.332566794               0.203210648               0.000000000               0.356485823               0.218823412               0.000000000               0.380404853               0.234436177               0.000000000               0.404323882               0.250048941               0.000000000               0.428242912               0.265661706               0.000000000               0.452161941               0.281274471               0.000000000               0.476080971               0.296887235               0.000000000               0.500000000               0.312500000               0.000000000               0.110585458               0.073890841               0.000000000               0.134923867               0.092710163               0.000000000               0.159262276               0.111529486               0.000000000               0.183600685               0.130348808               0.000000000               0.207939094               0.149168131               0.000000000               0.232277503               0.167987453               0.000000000               0.256615912               0.186806776               0.000000000               0.280954320               0.205626098               0.000000000               0.305292729               0.224445420               0.000000000               0.329631138               0.243264743               0.000000000               0.353969547               0.262084065               0.000000000               0.378307956               0.280903388               0.000000000               0.402646365               0.299722710               0.000000000               0.426984773               0.318542033               0.000000000               0.451323182               0.337361355               0.000000000               0.475661591               0.356180678               0.000000000               0.500000000               0.375000000               0.000000000               0.102810390               0.084374307               0.000000000               0.127634741               0.106444663               0.000000000               0.152459092               0.128515018               0.000000000               0.177283442               0.150585374               0.000000000               0.202107793               0.172655730               0.000000000               0.226932143               0.194726086               0.000000000               0.251756494               0.216796442               0.000000000               0.276580845               0.238866798               0.000000000               0.301405195               0.260937153               0.000000000               0.326229546               0.283007509               0.000000000               0.351053896               0.305077865               0.000000000               0.375878247               0.327148221               0.000000000               0.400702598               0.349218577               0.000000000               0.425526948               0.371288933               0.000000000               0.450351299               0.393359288               0.000000000               0.475175649               0.415429644               0.000000000               0.500000000               0.437500000               0.000000000               0.094045202               0.094045202               0.000000000               0.119417377               0.119417377               0.000000000               0.144789552               0.144789552               0.000000000               0.170161727               0.170161727               0.000000000               0.195533901               0.195533901               0.000000000               0.220906076               0.220906076               0.000000000               0.246278251               0.246278251               0.000000000               0.271650426               0.271650426               0.000000000               0.297022601               0.297022601               0.000000000               0.322394776               0.322394776               0.000000000               0.347766951               0.347766951               0.000000000               0.373139126               0.373139126               0.000000000               0.398511300               0.398511300               0.000000000               0.423883475               0.423883475               0.000000000               0.449255650               0.449255650               0.000000000               0.474627825               0.474627825               0.000000000               0.500000000               0.500000000               0.000000000               0.084374307               0.102810390               0.000000000               0.106444663               0.127634741               0.000000000               0.128515018               0.152459092               0.000000000               0.150585374               0.177283442               0.000000000               0.172655730               0.202107793               0.000000000               0.194726086               0.226932143               0.000000000               0.216796442               0.251756494               0.000000000               0.238866798               0.276580845               0.000000000               0.260937153               0.301405195               0.000000000               0.283007509               0.326229546               0.000000000               0.305077865               0.351053896               0.000000000               0.327148221               0.375878247               0.000000000               0.349218577               0.400702598               0.000000000               0.371288933               0.425526948               0.000000000               0.393359288               0.450351299               0.000000000               0.415429644               0.475175649               0.000000000               0.437500000               0.500000000               0.000000000               0.073890841               0.110585458               0.000000000               0.092710163               0.134923867               0.000000000               0.111529486               0.159262276               0.000000000               0.130348808               0.183600685               0.000000000               0.149168131               0.207939094               0.000000000               0.167987453               0.232277503               0.000000000               0.186806776               0.256615912               0.000000000               0.205626098               0.280954320               0.000000000               0.224445420               0.305292729               0.000000000               0.243264743               0.329631138               0.000000000               0.262084065               0.353969547               0.000000000               0.280903388               0.378307956               0.000000000               0.299722710               0.402646365               0.000000000               0.318542033               0.426984773               0.000000000               0.337361355               0.451323182               0.000000000               0.356180678               0.475661591               0.000000000               0.375000000               0.500000000               0.000000000               0.062695766               0.117295528               0.000000000               0.078308531               0.141214558               0.000000000               0.093921295               0.165133587               0.000000000               0.109534060               0.189052617               0.000000000               0.125146824               0.212971646               0.000000000               0.140759589               0.236890676               0.000000000               0.156372354               0.260809705               0.000000000               0.171985118               0.284728735               0.000000000               0.187597883               0.308647764               0.000000000               0.203210648               0.332566794               0.000000000               0.218823412               0.356485823               0.000000000               0.234436177               0.380404853               0.000000000               0.250048941               0.404323882               0.000000000               0.265661706               0.428242912               0.000000000               0.281274471               0.452161941               0.000000000               0.296887235               0.476080971               0.000000000               0.312500000               0.500000000               0.000000000               0.050896897               0.122875978               0.000000000               0.063340840               0.146446229               0.000000000               0.075784784               0.170016481               0.000000000               0.088228728               0.193586732               0.000000000               0.100672672               0.217156983               0.000000000               0.113116616               0.240727235               0.000000000               0.125560560               0.264297486               0.000000000               0.138004504               0.287867738               0.000000000               0.150448448               0.311437989               0.000000000               0.162892392               0.335008240               0.000000000               0.175336336               0.358578492               0.000000000               0.187780280               0.382148743               0.000000000               0.200224224               0.405718994               0.000000000               0.212668168               0.429289246               0.000000000               0.225112112               0.452859497               0.000000000               0.237556056               0.476429749               0.000000000               0.250000000               0.500000000               0.000000000               0.038607862               0.127273065               0.000000000               0.047913621               0.150568498               0.000000000               0.057219379               0.173863932               0.000000000               0.066525138               0.197159365               0.000000000               0.075830897               0.220454798               0.000000000               0.085136655               0.243750232               0.000000000               0.094442414               0.267045665               0.000000000               0.103748172               0.290341099               0.000000000               0.113053931               0.313636532               0.000000000               0.122359690               0.336931966               0.000000000               0.131665448               0.360227399               0.000000000               0.140971207               0.383522833               0.000000000               0.150276966               0.406818266               0.000000000               0.159582724               0.430113700               0.000000000               0.168888483               0.453409133               0.000000000               0.178194241               0.476704567               0.000000000               0.187500000               0.500000000               0.000000000               0.025947013               0.130444442               0.000000000               0.032137825               0.153541665               0.000000000               0.038328636               0.176638887               0.000000000               0.044519448               0.199736109               0.000000000               0.050710260               0.222833332               0.000000000               0.056901071               0.245930554               0.000000000               0.063091883               0.269027776               0.000000000               0.069282695               0.292124999               0.000000000               0.075473506               0.315222221               0.000000000               0.081664318               0.338319444               0.000000000               0.087855130               0.361416666               0.000000000               0.094045942               0.384513888               0.000000000               0.100236753               0.407611111               0.000000000               0.106427565               0.430708333               0.000000000               0.112618377               0.453805555               0.000000000               0.118809188               0.476902778               0.000000000               0.125000000               0.500000000               0.000000000               0.013036280               0.132359569               0.000000000               0.016127762               0.155337096               0.000000000               0.019219245               0.178314623               0.000000000               0.022310727               0.201292150               0.000000000               0.025402210               0.224269676               0.000000000               0.028493692               0.247247203               0.000000000               0.031585175               0.270224730               0.000000000               0.034676657               0.293202257               0.000000000               0.037768140               0.316179784               0.000000000               0.040859622               0.339157311               0.000000000               0.043951105               0.362134838               0.000000000               0.047042587               0.385112365               0.000000000               0.050134070               0.408089892               0.000000000               0.053225552               0.431067419               0.000000000               0.056317035               0.454044946               0.000000000               0.059408517               0.477022473               0.000000000               0.062500000               0.500000000               0.000000000               0.000000000               0.133000000               0.000000000               0.000000000               0.155937500               0.000000000               0.000000000               0.178875000               0.000000000               0.000000000               0.201812500               0.000000000               0.000000000               0.224750000               0.000000000               0.000000000               0.247687500               0.000000000               0.000000000               0.270625000               0.000000000               0.000000000               0.293562500               0.000000000               0.000000000               0.316500000               0.000000000               0.000000000               0.339437500               0.000000000               0.000000000               0.362375000               0.000000000               0.000000000               0.385312500               0.000000000               0.000000000               0.408250000               0.000000000               0.000000000               0.431187500               0.000000000               0.000000000               0.454125000               0.000000000               0.000000000               0.477062500               0.000000000               0.000000000               0.500000000               0.000000000               0.133000000               0.000000000               0.000000000               0.155937500               0.000000000               0.000000000               0.178875000               0.000000000               0.000000000               0.201812500               0.000000000               0.000000000               0.224750000               0.000000000               0.000000000               0.247687500               0.000000000               0.000000000               0.270625000               0.000000000               0.000000000               0.293562500               0.000000000               0.000000000               0.316500000               0.000000000               0.000000000               0.339437500               0.000000000               0.000000000               0.362375000               0.000000000               0.000000000               0.385312500               0.000000000               0.000000000               0.408250000               0.000000000               0.000000000               0.431187500               0.000000000               0.000000000               0.454125000               0.000000000               0.000000000               0.477062500               0.000000000               0.000000000               0.500000000               0.000000000               0.000000000               0.132359569              -0.013036280               0.000000000               0.155337096              -0.016127762               0.000000000               0.178314623              -0.019219245               0.000000000               0.201292150              -0.022310727               0.000000000               0.224269676              -0.025402210               0.000000000               0.247247203              -0.028493692               0.000000000               0.270224730              -0.031585175               0.000000000               0.293202257              -0.034676657               0.000000000               0.316179784              -0.037768140               0.000000000               0.339157311              -0.040859622               0.000000000               0.362134838              -0.043951105               0.000000000               0.385112365              -0.047042587               0.000000000               0.408089892              -0.050134070               0.000000000               0.431067419              -0.053225552               0.000000000               0.454044946              -0.056317035               0.000000000               0.477022473              -0.059408517               0.000000000               0.500000000              -0.062500000               0.000000000               0.130444442              -0.025947013               0.000000000               0.153541665              -0.032137825               0.000000000               0.176638887              -0.038328636               0.000000000               0.199736109              -0.044519448               0.000000000               0.222833332              -0.050710260               0.000000000               0.245930554              -0.056901071               0.000000000               0.269027776              -0.063091883               0.000000000               0.292124999              -0.069282695               0.000000000               0.315222221              -0.075473506               0.000000000               0.338319444              -0.081664318               0.000000000               0.361416666              -0.087855130               0.000000000               0.384513888              -0.094045942               0.000000000               0.407611111              -0.100236753               0.000000000               0.430708333              -0.106427565               0.000000000               0.453805555              -0.112618377               0.000000000               0.476902778              -0.118809188               0.000000000               0.500000000              -0.125000000               0.000000000               0.127273065              -0.038607862               0.000000000               0.150568498              -0.047913621               0.000000000               0.173863932              -0.057219379               0.000000000               0.197159365              -0.066525138               0.000000000               0.220454798              -0.075830897               0.000000000               0.243750232              -0.085136655               0.000000000               0.267045665              -0.094442414               0.000000000               0.290341099              -0.103748172               0.000000000               0.313636532              -0.113053931               0.000000000               0.336931966              -0.122359690               0.000000000               0.360227399              -0.131665448               0.000000000               0.383522833              -0.140971207               0.000000000               0.406818266              -0.150276966               0.000000000               0.430113700              -0.159582724               0.000000000               0.453409133              -0.168888483               0.000000000               0.476704567              -0.178194241               0.000000000               0.500000000              -0.187500000               0.000000000               0.122875978              -0.050896897               0.000000000               0.146446229              -0.063340840               0.000000000               0.170016481              -0.075784784               0.000000000               0.193586732              -0.088228728               0.000000000               0.217156983              -0.100672672               0.000000000               0.240727235              -0.113116616               0.000000000               0.264297486              -0.125560560               0.000000000               0.287867738              -0.138004504               0.000000000               0.311437989              -0.150448448               0.000000000               0.335008240              -0.162892392               0.000000000               0.358578492              -0.175336336               0.000000000               0.382148743              -0.187780280               0.000000000               0.405718994              -0.200224224               0.000000000               0.429289246              -0.212668168               0.000000000               0.452859497              -0.225112112               0.000000000               0.476429749              -0.237556056               0.000000000               0.500000000              -0.250000000               0.000000000               0.117295528              -0.062695766               0.000000000               0.141214558              -0.078308531               0.000000000               0.165133587              -0.093921295               0.000000000               0.189052617              -0.109534060               0.000000000               0.212971646              -0.125146824               0.000000000               0.236890676              -0.140759589               0.000000000               0.260809705              -0.156372354               0.000000000               0.284728735              -0.171985118               0.000000000               0.308647764              -0.187597883               0.000000000               0.332566794              -0.203210648               0.000000000               0.356485823              -0.218823412               0.000000000               0.380404853              -0.234436177               0.000000000               0.404323882              -0.250048941               0.000000000               0.428242912              -0.265661706               0.000000000               0.452161941              -0.281274471               0.000000000               0.476080971              -0.296887235               0.000000000               0.500000000              -0.312500000               0.000000000               0.110585458              -0.073890841               0.000000000               0.134923867              -0.092710163               0.000000000               0.159262276              -0.111529486               0.000000000               0.183600685              -0.130348808               0.000000000               0.207939094              -0.149168131               0.000000000               0.232277503              -0.167987453               0.000000000               0.256615912              -0.186806776               0.000000000               0.280954320              -0.205626098               0.000000000               0.305292729              -0.224445420               0.000000000               0.329631138              -0.243264743               0.000000000               0.353969547              -0.262084065               0.000000000               0.378307956              -0.280903388               0.000000000               0.402646365              -0.299722710               0.000000000               0.426984773              -0.318542033               0.000000000               0.451323182              -0.337361355               0.000000000               0.475661591              -0.356180678               0.000000000               0.500000000              -0.375000000               0.000000000               0.102810390              -0.084374307               0.000000000               0.127634741              -0.106444663               0.000000000               0.152459092              -0.128515018               0.000000000               0.177283442              -0.150585374               0.000000000               0.202107793              -0.172655730               0.000000000               0.226932143              -0.194726086               0.000000000               0.251756494              -0.216796442               0.000000000               0.276580845              -0.238866798               0.000000000               0.301405195              -0.260937153               0.000000000               0.326229546              -0.283007509               0.000000000               0.351053896              -0.305077865               0.000000000               0.375878247              -0.327148221               0.000000000               0.400702598              -0.349218577               0.000000000               0.425526948              -0.371288933               0.000000000               0.450351299              -0.393359288               0.000000000               0.475175649              -0.415429644               0.000000000               0.500000000              -0.437500000               0.000000000               0.094045202              -0.094045202               0.000000000               0.119417377              -0.119417377               0.000000000               0.144789552              -0.144789552               0.000000000               0.170161727              -0.170161727               0.000000000               0.195533901              -0.195533901               0.000000000               0.220906076              -0.220906076               0.000000000               0.246278251              -0.246278251               0.000000000               0.271650426              -0.271650426               0.000000000               0.297022601              -0.297022601               0.000000000               0.322394776              -0.322394776               0.000000000               0.347766951              -0.347766951               0.000000000               0.373139126              -0.373139126               0.000000000               0.398511300              -0.398511300               0.000000000               0.423883475              -0.423883475               0.000000000               0.449255650              -0.449255650               0.000000000               0.474627825              -0.474627825               0.000000000               0.500000000              -0.500000000               0.000000000               0.084374307              -0.102810390               0.000000000               0.106444663              -0.127634741               0.000000000               0.128515018              -0.152459092               0.000000000               0.150585374              -0.177283442               0.000000000               0.172655730              -0.202107793               0.000000000               0.194726086              -0.226932143               0.000000000               0.216796442              -0.251756494               0.000000000               0.238866798              -0.276580845               0.000000000               0.260937153              -0.301405195               0.000000000               0.283007509              -0.326229546               0.000000000               0.305077865              -0.351053896               0.000000000               0.327148221              -0.375878247               0.000000000               0.349218577              -0.400702598               0.000000000               0.371288933              -0.425526948               0.000000000               0.393359288              -0.450351299               0.000000000               0.415429644              -0.475175649               0.000000000               0.437500000              -0.500000000               0.000000000               0.073890841              -0.110585458               0.000000000               0.092710163              -0.134923867               0.000000000               0.111529486              -0.159262276               0.000000000               0.130348808              -0.183600685               0.000000000               0.149168131              -0.207939094               0.000000000               0.167987453              -0.232277503               0.000000000               0.186806776              -0.256615912               0.000000000               0.205626098              -0.280954320               0.000000000               0.224445420              -0.305292729               0.000000000               0.243264743              -0.329631138               0.000000000               0.262084065              -0.353969547               0.000000000               0.280903388              -0.378307956               0.000000000               0.299722710              -0.402646365               0.000000000               0.318542033              -0.426984773               0.000000000               0.337361355              -0.451323182               0.000000000               0.356180678              -0.475661591               0.000000000               0.375000000              -0.500000000               0.000000000               0.062695766              -0.117295528               0.000000000               0.078308531              -0.141214558               0.000000000               0.093921295              -0.165133587               0.000000000               0.109534060              -0.189052617               0.000000000               0.125146824              -0.212971646               0.000000000               0.140759589              -0.236890676               0.000000000               0.156372354              -0.260809705               0.000000000               0.171985118              -0.284728735               0.000000000               0.187597883              -0.308647764               0.000000000               0.203210648              -0.332566794               0.000000000               0.218823412              -0.356485823               0.000000000               0.234436177              -0.380404853               0.000000000               0.250048941              -0.404323882               0.000000000               0.265661706              -0.428242912               0.000000000               0.281274471              -0.452161941               0.000000000               0.296887235              -0.476080971               0.000000000               0.312500000              -0.500000000               0.000000000               0.050896897              -0.122875978               0.000000000               0.063340840              -0.146446229               0.000000000               0.075784784              -0.170016481               0.000000000               0.088228728              -0.193586732               0.000000000               0.100672672              -0.217156983               0.000000000               0.113116616              -0.240727235               0.000000000               0.125560560              -0.264297486               0.000000000               0.138004504              -0.287867738               0.000000000               0.150448448              -0.311437989               0.000000000               0.162892392              -0.335008240               0.000000000               0.175336336              -0.358578492               0.000000000               0.187780280              -0.382148743               0.000000000               0.200224224              -0.405718994               0.000000000               0.212668168              -0.429289246               0.000000000               0.225112112              -0.452859497               0.000000000               0.237556056              -0.476429749               0.000000000               0.250000000              -0.500000000               0.000000000               0.038607862              -0.127273065               0.000000000               0.047913621              -0.150568498               0.000000000               0.057219379              -0.173863932               0.000000000               0.066525138              -0.197159365               0.000000000               0.075830897              -0.220454798               0.000000000               0.085136655              -0.243750232               0.000000000               0.094442414              -0.267045665               0.000000000               0.103748172              -0.290341099               0.000000000               0.113053931              -0.313636532               0.000000000               0.122359690              -0.336931966               0.000000000               0.131665448              -0.360227399               0.000000000               0.140971207              -0.383522833               0.000000000               0.150276966              -0.406818266               0.000000000               0.159582724              -0.430113700               0.000000000               0.168888483              -0.453409133               0.000000000               0.178194241              -0.476704567               0.000000000               0.187500000              -0.500000000               0.000000000               0.025947013              -0.130444442               0.000000000               0.032137825              -0.153541665               0.000000000               0.038328636              -0.176638887               0.000000000               0.044519448              -0.199736109               0.000000000               0.050710260              -0.222833332               0.000000000               0.056901071              -0.245930554               0.000000000               0.063091883              -0.269027776               0.000000000               0.069282695              -0.292124999               0.000000000               0.075473506              -0.315222221               0.000000000               0.081664318              -0.338319444               0.000000000               0.087855130              -0.361416666               0.000000000               0.094045942              -0.384513888               0.000000000               0.100236753              -0.407611111               0.000000000               0.106427565              -0.430708333               0.000000000               0.112618377              -0.453805555               0.000000000               0.118809188              -0.476902778               0.000000000               0.125000000              -0.500000000               0.000000000               0.013036280              -0.132359569               0.000000000               0.016127762              -0.155337096               0.000000000               0.019219245              -0.178314623               0.000000000               0.022310727              -0.201292150               0.000000000               0.025402210              -0.224269676               0.000000000               0.028493692              -0.247247203               0.000000000               0.031585175              -0.270224730               0.000000000               0.034676657              -0.293202257               0.000000000               0.037768140              -0.316179784               0.000000000               0.040859622              -0.339157311               0.000000000               0.043951105              -0.362134838               0.000000000               0.047042587              -0.385112365               0.000000000               0.050134070              -0.408089892               0.000000000               0.053225552              -0.431067419               0.000000000               0.056317035              -0.454044946               0.000000000               0.059408517              -0.477022473               0.000000000               0.062500000              -0.500000000               0.000000000               0.000000000              -0.133000000               0.000000000               0.000000000              -0.155937500               0.000000000               0.000000000              -0.178875000               0.000000000               0.000000000              -0.201812500               0.000000000               0.000000000              -0.224750000               0.000000000               0.000000000              -0.247687500               0.000000000               0.000000000              -0.270625000               0.000000000               0.000000000              -0.293562500               0.000000000               0.000000000              -0.316500000               0.000000000               0.000000000              -0.339437500               0.000000000               0.000000000              -0.362375000               0.000000000               0.000000000              -0.385312500               0.000000000               0.000000000              -0.408250000               0.000000000               0.000000000              -0.431187500               0.000000000               0.000000000              -0.454125000               0.000000000               0.000000000              -0.477062500               0.000000000               0.000000000              -0.500000000               0.000000000              -0.133000000               0.000000000               0.000000000              -0.155937500               0.000000000               0.000000000              -0.178875000               0.000000000               0.000000000              -0.201812500               0.000000000               0.000000000              -0.224750000               0.000000000               0.000000000              -0.247687500               0.000000000               0.000000000              -0.270625000               0.000000000               0.000000000              -0.293562500               0.000000000               0.000000000              -0.316500000               0.000000000               0.000000000              -0.339437500               0.000000000               0.000000000              -0.362375000               0.000000000               0.000000000              -0.385312500               0.000000000               0.000000000              -0.408250000               0.000000000               0.000000000              -0.431187500               0.000000000               0.000000000              -0.454125000               0.000000000               0.000000000              -0.477062500               0.000000000               0.000000000              -0.500000000               0.000000000               0.000000000              -0.132359569              -0.013036280               0.000000000              -0.155337096              -0.016127762               0.000000000              -0.178314623              -0.019219245               0.000000000              -0.201292150              -0.022310727               0.000000000              -0.224269676              -0.025402210               0.000000000              -0.247247203              -0.028493692               0.000000000              -0.270224730              -0.031585175               0.000000000              -0.293202257              -0.034676657               0.000000000              -0.316179784              -0.037768140               0.000000000              -0.339157311              -0.040859622               0.000000000              -0.362134838              -0.043951105               0.000000000              -0.385112365              -0.047042587               0.000000000              -0.408089892              -0.050134070               0.000000000              -0.431067419              -0.053225552               0.000000000              -0.454044946              -0.056317035               0.000000000              -0.477022473              -0.059408517               0.000000000              -0.500000000              -0.062500000               0.000000000              -0.130444442              -0.025947013               0.000000000              -0.153541665              -0.032137825               0.000000000              -0.176638887              -0.038328636               0.000000000              -0.199736109              -0.044519448               0.000000000              -0.222833332              -0.050710260               0.000000000              -0.245930554              -0.056901071               0.000000000              -0.269027776              -0.063091883               0.000000000              -0.292124999              -0.069282695               0.000000000              -0.315222221              -0.075473506               0.000000000              -0.338319444              -0.081664318               0.000000000              -0.361416666              -0.087855130               0.000000000              -0.384513888              -0.094045942               0.000000000              -0.407611111              -0.100236753               0.000000000              -0.430708333              -0.106427565               0.000000000              -0.453805555              -0.112618377               0.000000000              -0.476902778              -0.118809188               0.000000000              -0.500000000              -0.125000000               0.000000000              -0.127273065              -0.038607862               0.000000000              -0.150568498              -0.047913621               0.000000000              -0.173863932              -0.057219379               0.000000000              -0.197159365              -0.066525138               0.000000000              -0.220454798              -0.075830897               0.000000000              -0.243750232              -0.085136655               0.000000000              -0.267045665              -0.094442414               0.000000000              -0.290341099              -0.103748172               0.000000000              -0.313636532              -0.113053931               0.000000000              -0.336931966              -0.122359690               0.000000000              -0.360227399              -0.131665448               0.000000000              -0.383522833              -0.140971207               0.000000000              -0.406818266              -0.150276966               0.000000000              -0.430113700              -0.159582724               0.000000000              -0.453409133              -0.168888483               0.000000000              -0.476704567              -0.178194241               0.000000000              -0.500000000              -0.187500000               0.000000000              -0.122875978              -0.050896897               0.000000000              -0.146446229              -0.063340840               0.000000000              -0.170016481              -0.075784784               0.000000000              -0.193586732              -0.088228728               0.000000000              -0.217156983              -0.100672672               0.000000000              -0.240727235              -0.113116616               0.000000000              -0.264297486              -0.125560560               0.000000000              -0.287867738              -0.138004504               0.000000000              -0.311437989              -0.150448448               0.000000000              -0.335008240              -0.162892392               0.000000000              -0.358578492              -0.175336336               0.000000000              -0.382148743              -0.187780280               0.000000000              -0.405718994              -0.200224224               0.000000000              -0.429289246              -0.212668168               0.000000000              -0.452859497              -0.225112112               0.000000000              -0.476429749              -0.237556056               0.000000000              -0.500000000              -0.250000000               0.000000000              -0.117295528              -0.062695766               0.000000000              -0.141214558              -0.078308531               0.000000000              -0.165133587              -0.093921295               0.000000000              -0.189052617              -0.109534060               0.000000000              -0.212971646              -0.125146824               0.000000000              -0.236890676              -0.140759589               0.000000000              -0.260809705              -0.156372354               0.000000000              -0.284728735              -0.171985118               0.000000000              -0.308647764              -0.187597883               0.000000000              -0.332566794              -0.203210648               0.000000000              -0.356485823              -0.218823412               0.000000000              -0.380404853              -0.234436177               0.000000000              -0.404323882              -0.250048941               0.000000000              -0.428242912              -0.265661706               0.000000000              -0.452161941              -0.281274471               0.000000000              -0.476080971              -0.296887235               0.000000000              -0.500000000              -0.312500000               0.000000000              -0.110585458              -0.073890841               0.000000000              -0.134923867              -0.092710163               0.000000000              -0.159262276              -0.111529486               0.000000000              -0.183600685              -0.130348808               0.000000000              -0.207939094              -0.149168131               0.000000000              -0.232277503              -0.167987453               0.000000000              -0.256615912              -0.186806776               0.000000000              -0.280954320              -0.205626098               0.000000000              -0.305292729              -0.224445420               0.000000000              -0.329631138              -0.243264743               0.000000000              -0.353969547              -0.262084065               0.000000000              -0.378307956              -0.280903388               0.000000000              -0.402646365              -0.299722710               0.000000000              -0.426984773              -0.318542033               0.000000000              -0.451323182              -0.337361355               0.000000000              -0.475661591              -0.356180678               0.000000000              -0.500000000              -0.375000000               0.000000000              -0.102810390              -0.084374307               0.000000000              -0.127634741              -0.106444663               0.000000000              -0.152459092              -0.128515018               0.000000000              -0.177283442              -0.150585374               0.000000000              -0.202107793              -0.172655730               0.000000000              -0.226932143              -0.194726086               0.000000000              -0.251756494              -0.216796442               0.000000000              -0.276580845              -0.238866798               0.000000000              -0.301405195              -0.260937153               0.000000000              -0.326229546              -0.283007509               0.000000000              -0.351053896              -0.305077865               0.000000000              -0.375878247              -0.327148221               0.000000000              -0.400702598              -0.349218577               0.000000000              -0.425526948              -0.371288933               0.000000000              -0.450351299              -0.393359288               0.000000000              -0.475175649              -0.415429644               0.000000000              -0.500000000              -0.437500000               0.000000000              -0.094045202              -0.094045202               0.000000000              -0.119417377              -0.119417377               0.000000000              -0.144789552              -0.144789552               0.000000000              -0.170161727              -0.170161727               0.000000000              -0.195533901              -0.195533901               0.000000000              -0.220906076              -0.220906076               0.000000000              -0.246278251              -0.246278251               0.000000000              -0.271650426              -0.271650426               0.000000000              -0.297022601              -0.297022601               0.000000000              -0.322394776              -0.322394776               0.000000000              -0.347766951              -0.347766951               0.000000000              -0.373139126              -0.373139126               0.000000000              -0.398511300              -0.398511300               0.000000000              -0.423883475              -0.423883475               0.000000000              -0.449255650              -0.449255650               0.000000000              -0.474627825              -0.474627825               0.000000000              -0.500000000              -0.500000000               0.000000000              -0.084374307              -0.102810390               0.000000000              -0.106444663              -0.127634741               0.000000000              -0.128515018              -0.152459092               0.000000000              -0.150585374              -0.177283442               0.000000000              -0.172655730              -0.202107793               0.000000000              -0.194726086              -0.226932143               0.000000000              -0.216796442              -0.251756494               0.000000000              -0.238866798              -0.276580845               0.000000000              -0.260937153              -0.301405195               0.000000000              -0.283007509              -0.326229546               0.000000000              -0.305077865              -0.351053896               0.000000000              -0.327148221              -0.375878247               0.000000000              -0.349218577              -0.400702598               0.000000000              -0.371288933              -0.425526948               0.000000000              -0.393359288              -0.450351299               0.000000000              -0.415429644              -0.475175649               0.000000000              -0.437500000              -0.500000000               0.000000000              -0.073890841              -0.110585458               0.000000000              -0.092710163              -0.134923867               0.000000000              -0.111529486              -0.159262276               0.000000000              -0.130348808              -0.183600685               0.000000000              -0.149168131              -0.207939094               0.000000000              -0.167987453              -0.232277503               0.000000000              -0.186806776              -0.256615912               0.000000000              -0.205626098              -0.280954320               0.000000000              -0.224445420              -0.305292729               0.000000000              -0.243264743              -0.329631138               0.000000000              -0.262084065              -0.353969547               0.000000000              -0.280903388              -0.378307956               0.000000000              -0.299722710              -0.402646365               0.000000000              -0.318542033              -0.426984773               0.000000000              -0.337361355              -0.451323182               0.000000000              -0.356180678              -0.475661591               0.000000000              -0.375000000              -0.500000000               0.000000000              -0.062695766              -0.117295528               0.000000000              -0.078308531              -0.141214558               0.000000000              -0.093921295              -0.165133587               0.000000000              -0.109534060              -0.189052617               0.000000000              -0.125146824              -0.212971646               0.000000000              -0.140759589              -0.236890676               0.000000000              -0.156372354              -0.260809705               0.000000000              -0.171985118              -0.284728735               0.000000000              -0.187597883              -0.308647764               0.000000000              -0.203210648              -0.332566794               0.000000000              -0.218823412              -0.356485823               0.000000000              -0.234436177              -0.380404853               0.000000000              -0.250048941              -0.404323882               0.000000000              -0.265661706              -0.428242912               0.000000000              -0.281274471              -0.452161941               0.000000000              -0.296887235              -0.476080971               0.000000000              -0.312500000              -0.500000000               0.000000000              -0.050896897              -0.122875978               0.000000000              -0.063340840              -0.146446229               0.000000000              -0.075784784              -0.170016481               0.000000000              -0.088228728              -0.193586732               0.000000000              -0.100672672              -0.217156983               0.000000000              -0.113116616              -0.240727235               0.000000000              -0.125560560              -0.264297486               0.000000000              -0.138004504              -0.287867738               0.000000000              -0.150448448              -0.311437989               0.000000000              -0.162892392              -0.335008240               0.000000000              -0.175336336              -0.358578492               0.000000000              -0.187780280              -0.382148743               0.000000000              -0.200224224              -0.405718994               0.000000000              -0.212668168              -0.429289246               0.000000000              -0.225112112              -0.452859497               0.000000000              -0.237556056              -0.476429749               0.000000000              -0.250000000              -0.500000000               0.000000000              -0.038607862              -0.127273065               0.000000000              -0.047913621              -0.150568498               0.000000000              -0.057219379              -0.173863932               0.000000000              -0.066525138              -0.197159365               0.000000000              -0.075830897              -0.220454798               0.000000000              -0.085136655              -0.243750232               0.000000000              -0.094442414              -0.267045665               0.000000000              -0.103748172              -0.290341099               0.000000000              -0.113053931              -0.313636532               0.000000000              -0.122359690              -0.336931966               0.000000000              -0.131665448              -0.360227399               0.000000000              -0.140971207              -0.383522833               0.000000000              -0.150276966              -0.406818266               0.000000000              -0.159582724              -0.430113700               0.000000000              -0.168888483              -0.453409133               0.000000000              -0.178194241              -0.476704567               0.000000000              -0.187500000              -0.500000000               0.000000000              -0.025947013              -0.130444442               0.000000000              -0.032137825              -0.153541665               0.000000000              -0.038328636              -0.176638887               0.000000000              -0.044519448              -0.199736109               0.000000000              -0.050710260              -0.222833332               0.000000000              -0.056901071              -0.245930554               0.000000000              -0.063091883              -0.269027776               0.000000000              -0.069282695              -0.292124999               0.000000000              -0.075473506              -0.315222221               0.000000000              -0.081664318              -0.338319444               0.000000000              -0.087855130              -0.361416666               0.000000000              -0.094045942              -0.384513888               0.000000000              -0.100236753              -0.407611111               0.000000000              -0.106427565              -0.430708333               0.000000000              -0.112618377              -0.453805555               0.000000000              -0.118809188              -0.476902778               0.000000000              -0.125000000              -0.500000000               0.000000000              -0.013036280              -0.132359569               0.000000000              -0.016127762              -0.155337096               0.000000000              -0.019219245              -0.178314623               0.000000000              -0.022310727              -0.201292150               0.000000000              -0.025402210              -0.224269676               0.000000000              -0.028493692              -0.247247203               0.000000000              -0.031585175              -0.270224730               0.000000000              -0.034676657              -0.293202257               0.000000000              -0.037768140              -0.316179784               0.000000000              -0.040859622              -0.339157311               0.000000000              -0.043951105              -0.362134838               0.000000000              -0.047042587              -0.385112365               0.000000000              -0.050134070              -0.408089892               0.000000000              -0.053225552              -0.431067419               0.000000000              -0.056317035              -0.454044946               0.000000000              -0.059408517              -0.477022473               0.000000000              -0.062500000              -0.500000000               0.000000000               0.000000000              -0.133000000               0.000000000               0.000000000              -0.155937500               0.000000000               0.000000000              -0.178875000               0.000000000               0.000000000              -0.201812500               0.000000000               0.000000000              -0.224750000               0.000000000               0.000000000              -0.247687500               0.000000000               0.000000000              -0.270625000               0.000000000               0.000000000              -0.293562500               0.000000000               0.000000000              -0.316500000               0.000000000               0.000000000              -0.339437500               0.000000000               0.000000000              -0.362375000               0.000000000               0.000000000              -0.385312500               0.000000000               0.000000000              -0.408250000               0.000000000               0.000000000              -0.431187500               0.000000000               0.000000000              -0.454125000               0.000000000               0.000000000              -0.477062500               0.000000000               0.000000000              -0.500000000               0.000000000              -0.133000000               0.000000000               0.000000000              -0.155937500               0.000000000               0.000000000              -0.178875000               0.000000000               0.000000000              -0.201812500               0.000000000               0.000000000              -0.224750000               0.000000000               0.000000000              -0.247687500               0.000000000               0.000000000              -0.270625000               0.000000000               0.000000000              -0.293562500               0.000000000               0.000000000              -0.316500000               0.000000000               0.000000000              -0.339437500               0.000000000               0.000000000              -0.362375000               0.000000000               0.000000000              -0.385312500               0.000000000               0.000000000              -0.408250000               0.000000000               0.000000000              -0.431187500               0.000000000               0.000000000              -0.454125000               0.000000000               0.000000000              -0.477062500               0.000000000               0.000000000              -0.500000000               0.000000000               0.000000000              -0.132359569               0.013036280               0.000000000              -0.155337096               0.016127762               0.000000000              -0.178314623               0.019219245               0.000000000              -0.201292150               0.022310727               0.000000000              -0.224269676               0.025402210               0.000000000              -0.247247203               0.028493692               0.000000000              -0.270224730               0.031585175               0.000000000              -0.293202257               0.034676657               0.000000000              -0.316179784               0.037768140               0.000000000              -0.339157311               0.040859622               0.000000000              -0.362134838               0.043951105               0.000000000              -0.385112365               0.047042587               0.000000000              -0.408089892               0.050134070               0.000000000              -0.431067419               0.053225552               0.000000000              -0.454044946               0.056317035               0.000000000              -0.477022473               0.059408517               0.000000000              -0.500000000               0.062500000               0.000000000              -0.130444442               0.025947013               0.000000000              -0.153541665               0.032137825               0.000000000              -0.176638887               0.038328636               0.000000000              -0.199736109               0.044519448               0.000000000              -0.222833332               0.050710260               0.000000000              -0.245930554               0.056901071               0.000000000              -0.269027776               0.063091883               0.000000000              -0.292124999               0.069282695               0.000000000              -0.315222221               0.075473506               0.000000000              -0.338319444               0.081664318               0.000000000              -0.361416666               0.087855130               0.000000000              -0.384513888               0.094045942               0.000000000              -0.407611111               0.100236753               0.000000000              -0.430708333               0.106427565               0.000000000              -0.453805555               0.112618377               0.000000000              -0.476902778               0.118809188               0.000000000              -0.500000000               0.125000000               0.000000000              -0.127273065               0.038607862               0.000000000              -0.150568498               0.047913621               0.000000000              -0.173863932               0.057219379               0.000000000              -0.197159365               0.066525138               0.000000000              -0.220454798               0.075830897               0.000000000              -0.243750232               0.085136655               0.000000000              -0.267045665               0.094442414               0.000000000              -0.290341099               0.103748172               0.000000000              -0.313636532               0.113053931               0.000000000              -0.336931966               0.122359690               0.000000000              -0.360227399               0.131665448               0.000000000              -0.383522833               0.140971207               0.000000000              -0.406818266               0.150276966               0.000000000              -0.430113700               0.159582724               0.000000000              -0.453409133               0.168888483               0.000000000              -0.476704567               0.178194241               0.000000000              -0.500000000               0.187500000               0.000000000              -0.122875978               0.050896897               0.000000000              -0.146446229               0.063340840               0.000000000              -0.170016481               0.075784784               0.000000000              -0.193586732               0.088228728               0.000000000              -0.217156983               0.100672672               0.000000000              -0.240727235               0.113116616               0.000000000              -0.264297486               0.125560560               0.000000000              -0.287867738               0.138004504               0.000000000              -0.311437989               0.150448448               0.000000000              -0.335008240               0.162892392               0.000000000              -0.358578492               0.175336336               0.000000000              -0.382148743               0.187780280               0.000000000              -0.405718994               0.200224224               0.000000000              -0.429289246               0.212668168               0.000000000              -0.452859497               0.225112112               0.000000000              -0.476429749               0.237556056               0.000000000              -0.500000000               0.250000000               0.000000000              -0.117295528               0.062695766               0.000000000              -0.141214558               0.078308531               0.000000000              -0.165133587               0.093921295               0.000000000              -0.189052617               0.109534060               0.000000000              -0.212971646               0.125146824               0.000000000              -0.236890676               0.140759589               0.000000000              -0.260809705               0.156372354               0.000000000              -0.284728735               0.171985118               0.000000000              -0.308647764               0.187597883               0.000000000              -0.332566794               0.203210648               0.000000000              -0.356485823               0.218823412               0.000000000              -0.380404853               0.234436177               0.000000000              -0.404323882               0.250048941               0.000000000              -0.428242912               0.265661706               0.000000000              -0.452161941               0.281274471               0.000000000              -0.476080971               0.296887235               0.000000000              -0.500000000               0.312500000               0.000000000              -0.110585458               0.073890841               0.000000000              -0.134923867               0.092710163               0.000000000              -0.159262276               0.111529486               0.000000000              -0.183600685               0.130348808               0.000000000              -0.207939094               0.149168131               0.000000000              -0.232277503               0.167987453               0.000000000              -0.256615912               0.186806776               0.000000000              -0.280954320               0.205626098               0.000000000              -0.305292729               0.224445420               0.000000000              -0.329631138               0.243264743               0.000000000              -0.353969547               0.262084065               0.000000000              -0.378307956               0.280903388               0.000000000              -0.402646365               0.299722710               0.000000000              -0.426984773               0.318542033               0.000000000              -0.451323182               0.337361355               0.000000000              -0.475661591               0.356180678               0.000000000              -0.500000000               0.375000000               0.000000000              -0.102810390               0.084374307               0.000000000              -0.127634741               0.106444663               0.000000000              -0.152459092               0.128515018               0.000000000              -0.177283442               0.150585374               0.000000000              -0.202107793               0.172655730               0.000000000              -0.226932143               0.194726086               0.000000000              -0.251756494               0.216796442               0.000000000              -0.276580845               0.238866798               0.000000000              -0.301405195               0.260937153               0.000000000              -0.326229546               0.283007509               0.000000000              -0.351053896               0.305077865               0.000000000              -0.375878247               0.327148221               0.000000000              -0.400702598               0.349218577               0.000000000              -0.425526948               0.371288933               0.000000000              -0.450351299               0.393359288               0.000000000              -0.475175649               0.415429644               0.000000000              -0.500000000               0.437500000               0.000000000              -0.094045202               0.094045202               0.000000000              -0.119417377               0.119417377               0.000000000              -0.144789552               0.144789552               0.000000000              -0.170161727               0.170161727               0.000000000              -0.195533901               0.195533901               0.000000000              -0.220906076               0.220906076               0.000000000              -0.246278251               0.246278251               0.000000000              -0.271650426               0.271650426               0.000000000              -0.297022601               0.297022601               0.000000000              -0.322394776               0.322394776               0.000000000              -0.347766951               0.347766951               0.000000000              -0.373139126               0.373139126               0.000000000              -0.398511300               0.398511300               0.000000000              -0.423883475               0.423883475               0.000000000              -0.449255650               0.449255650               0.000000000              -0.474627825               0.474627825               0.000000000              -0.500000000               0.500000000               0.000000000              -0.084374307               0.102810390               0.000000000              -0.106444663               0.127634741               0.000000000              -0.128515018               0.152459092               0.000000000              -0.150585374               0.177283442               0.000000000              -0.172655730               0.202107793               0.000000000              -0.194726086               0.226932143               0.000000000              -0.216796442               0.251756494               0.000000000              -0.238866798               0.276580845               0.000000000              -0.260937153               0.301405195               0.000000000              -0.283007509               0.326229546               0.000000000              -0.305077865               0.351053896               0.000000000              -0.327148221               0.375878247               0.000000000              -0.349218577               0.400702598               0.000000000              -0.371288933               0.425526948               0.000000000              -0.393359288               0.450351299               0.000000000              -0.415429644               0.475175649               0.000000000              -0.437500000               0.500000000               0.000000000              -0.073890841               0.110585458               0.000000000              -0.092710163               0.134923867               0.000000000              -0.111529486               0.159262276               0.000000000              -0.130348808               0.183600685               0.000000000              -0.149168131               0.207939094               0.000000000              -0.167987453               0.232277503               0.000000000              -0.186806776               0.256615912               0.000000000              -0.205626098               0.280954320               0.000000000              -0.224445420               0.305292729               0.000000000              -0.243264743               0.329631138               0.000000000              -0.262084065               0.353969547               0.000000000              -0.280903388               0.378307956               0.000000000              -0.299722710               0.402646365               0.000000000              -0.318542033               0.426984773               0.000000000              -0.337361355               0.451323182               0.000000000              -0.356180678               0.475661591               0.000000000              -0.375000000               0.500000000               0.000000000              -0.062695766               0.117295528               0.000000000              -0.078308531               0.141214558               0.000000000              -0.093921295               0.165133587               0.000000000              -0.109534060               0.189052617               0.000000000              -0.125146824               0.212971646               0.000000000              -0.140759589               0.236890676               0.000000000              -0.156372354               0.260809705               0.000000000              -0.171985118               0.284728735               0.000000000              -0.187597883               0.308647764               0.000000000              -0.203210648               0.332566794               0.000000000              -0.218823412               0.356485823               0.000000000              -0.234436177               0.380404853               0.000000000              -0.250048941               0.404323882               0.000000000              -0.265661706               0.428242912               0.000000000              -0.281274471               0.452161941               0.000000000              -0.296887235               0.476080971               0.000000000              -0.312500000               0.500000000               0.000000000              -0.050896897               0.122875978               0.000000000              -0.063340840               0.146446229               0.000000000              -0.075784784               0.170016481               0.000000000              -0.088228728               0.193586732               0.000000000              -0.100672672               0.217156983               0.000000000              -0.113116616               0.240727235               0.000000000              -0.125560560               0.264297486               0.000000000              -0.138004504               0.287867738               0.000000000              -0.150448448               0.311437989               0.000000000              -0.162892392               0.335008240               0.000000000              -0.175336336               0.358578492               0.000000000              -0.187780280               0.382148743               0.000000000              -0.200224224               0.405718994               0.000000000              -0.212668168               0.429289246               0.000000000              -0.225112112               0.452859497               0.000000000              -0.237556056               0.476429749               0.000000000              -0.250000000               0.500000000               0.000000000              -0.038607862               0.127273065               0.000000000              -0.047913621               0.150568498               0.000000000              -0.057219379               0.173863932               0.000000000              -0.066525138               0.197159365               0.000000000              -0.075830897               0.220454798               0.000000000              -0.085136655               0.243750232               0.000000000              -0.094442414               0.267045665               0.000000000              -0.103748172               0.290341099               0.000000000              -0.113053931               0.313636532               0.000000000              -0.122359690               0.336931966               0.000000000              -0.131665448               0.360227399               0.000000000              -0.140971207               0.383522833               0.000000000              -0.150276966               0.406818266               0.000000000              -0.159582724               0.430113700               0.000000000              -0.168888483               0.453409133               0.000000000              -0.178194241               0.476704567               0.000000000              -0.187500000               0.500000000               0.000000000              -0.025947013               0.130444442               0.000000000              -0.032137825               0.153541665               0.000000000              -0.038328636               0.176638887               0.000000000              -0.044519448               0.199736109               0.000000000              -0.050710260               0.222833332               0.000000000              -0.056901071               0.245930554               0.000000000              -0.063091883               0.269027776               0.000000000              -0.069282695               0.292124999               0.000000000              -0.075473506               0.315222221               0.000000000              -0.081664318               0.338319444               0.000000000              -0.087855130               0.361416666               0.000000000              -0.094045942               0.384513888               0.000000000              -0.100236753               0.407611111               0.000000000              -0.106427565               0.430708333               0.000000000              -0.112618377               0.453805555               0.000000000              -0.118809188               0.476902778               0.000000000              -0.125000000               0.500000000               0.000000000              -0.013036280               0.132359569               0.000000000              -0.016127762               0.155337096               0.000000000              -0.019219245               0.178314623               0.000000000              -0.022310727               0.201292150               0.000000000              -0.025402210               0.224269676               0.000000000              -0.028493692               0.247247203               0.000000000              -0.031585175               0.270224730               0.000000000              -0.034676657               0.293202257               0.000000000              -0.037768140               0.316179784               0.000000000              -0.040859622               0.339157311               0.000000000              -0.043951105               0.362134838               0.000000000              -0.047042587               0.385112365               0.000000000              -0.050134070               0.408089892               0.000000000              -0.053225552               0.431067419               0.000000000              -0.056317035               0.454044946               0.000000000              -0.059408517               0.477022473               0.000000000              -0.062500000               0.500000000               0.000000000               0.000000000               0.133000000               0.000000000               0.000000000               0.155937500               0.000000000               0.000000000               0.178875000               0.000000000               0.000000000               0.201812500               0.000000000               0.000000000               0.224750000               0.000000000               0.000000000               0.247687500               0.000000000               0.000000000               0.270625000               0.000000000               0.000000000               0.293562500               0.000000000               0.000000000               0.316500000               0.000000000               0.000000000               0.339437500               0.000000000               0.000000000               0.362375000               0.000000000               0.000000000               0.385312500               0.000000000               0.000000000               0.408250000               0.000000000               0.000000000               0.431187500               0.000000000               0.000000000               0.454125000               0.000000000               0.000000000               0.477062500               0.000000000               0.000000000               0.500000000               0.000000000 </DataArray>
</Points>
<Cells>
<DataArray type="Int32"                                    Name="connectivity"                                                      NumberOfComponents=" 1" format="ascii">
         0          1         18         17          1          2         19         18          2          3         20         19          3          4         21         20          4          5         22         21          5          6         23         22          6          7         24         23          7          8         25         24          8          9         26         25          9         10         27         26         10         11         28         27         11         12         29         28         12         13         30         29         13         14         31         30         14         15         32         31         15         16         33         32         17         18         35         34         18         19         36         35         19         20         37         36         20         21         38         37         21         22         39         38         22         23         40         39         23         24         41         40         24         25         42         41         25         26         43         42         26         27         44         43         27         28         45         44         28         29         46         45         29         30         47         46         30         31         48         47         31         32         49         48         32         33         50         49         34         35         52         51         35         36         53         52         36         37         54         53         37         38         55         54         38         39         56         55         39         40         57         56         40         41         58         57         41         42         59         58         42         43         60         59         43         44         61         60         44         45         62         61         45         46         63         62         46         47         64         63         47         48         65         64         48         49         66         65         49         50         67         66         51         52         69         68         52         53         70         69         53         54         71         70         54         55         72         71         55         56         73         72         56         57         74         73         57         58         75         74         58         59         76         75         59         60         77         76         60         61         78         77         61         62         79         78         62         63         80         79         63         64         81         80         64         65         82         81         65         66         83         82         66         67         84         83         68         69         86         85         69         70         87         86         70         71         88         87         71         72         89         88         72         73         90         89         73         74         91         90         74         75         92         91         75         76         93         92         76         77         94         93         77         78         95         94         78         79         96         95         79         80         97         96         80         81         98         97         81         82         99         98         82         83        100         99         83         84        101        100         85         86        103        102         86         87        104        103         87         88        105        104         88         89        106        105         89         90        107        106         90         91        108        107         91         92        109        108         92         93        110        109         93         94        111        110         94         95        112        111         95         96        113        112         96         97        114        113         97         98        115        114         98         99        116        115         99        100        117        116        100        101        118        117        102        103        120        119        103        104        121        120        104        105        122        121        105        106        123        122        106        107        124        123        107        108        125        124        108        109        126        125        109        110        127        126        110        111        128        127        111        112        129        128        112        113        130        129        113        114        131        130        114        115        132        131        115        116        133        132        116        117        134        133        117        118        135        134        119        120        137        136        120        121        138        137        121        122        139        138        122        123        140        139        123        124        141        140        124        125        142        141        125        126        143        142        126        127        144        143        127        128        145        144        128        129        146        145        129        130        147        146        130        131        148        147        131        132        149        148        132        133        150        149        133        134        151        150        134        135        152        151        136        137        154        153        137        138        155        154        138        139        156        155        139        140        157        156        140        141        158        157        141        142        159        158        142        143        160        159        143        144        161        160        144        145        162        161        145        146        163        162        146        147        164        163        147        148        165        164        148        149        166        165        149        150        167        166        150        151        168        167        151        152        169        168        153        154        171        170        154        155        172        171        155        156        173        172        156        157        174        173        157        158        175        174        158        159        176        175        159        160        177        176        160        161        178        177        161        162        179        178        162        163        180        179        163        164        181        180        164        165        182        181        165        166        183        182        166        167        184        183        167        168        185        184        168        169        186        185        170        171        188        187        171        172        189        188        172        173        190        189        173        174        191        190        174        175        192        191        175        176        193        192        176        177        194        193        177        178        195        194        178        179        196        195        179        180        197        196        180        181        198        197        181        182        199        198        182        183        200        199        183        184        201        200        184        185        202        201        185        186        203        202        187        188        205        204        188        189        206        205        189        190        207        206        190        191        208        207        191        192        209        208        192        193        210        209        193        194        211        210        194        195        212        211        195        196        213        212        196        197        214        213        197        198        215        214        198        199        216        215        199        200        217        216        200        201        218        217        201        202        219        218        202        203        220        219        204        205        222        221        205        206        223        222        206        207        224        223        207        208        225        224        208        209        226        225        209        210        227        226        210        211        228        227        211        212        229        228        212        213        230        229        213        214        231        230        214        215        232        231        215        216        233        232        216        217        234        233        217        218        235        234        218        219        236        235        219        220        237        236        221        222        239        238        222        223        240        239        223        224        241        240        224        225        242        241        225        226        243        242        226        227        244        243        227        228        245        244        228        229        246        245        229        230        247        246        230        231        248        247        231        232        249        248        232        233        250        249        233        234        251        250        234        235        252        251        235        236        253        252        236        237        254        253        238        239        256        255        239        240        257        256        240        241        258        257        241        242        259        258        242        243        260        259        243        244        261        260        244        245        262        261        245        246        263        262        246        247        264        263        247        248        265        264        248        249        266        265        249        250        267        266        250        251        268        267        251        252        269        268        252        253        270        269        253        254        271        270        255        256        273        272        256        257        274        273        257        258        275        274        258        259        276        275        259        260        277        276        260        261        278        277        261        262        279        278        262        263        280        279        263        264        281        280        264        265        282        281        265        266        283        282        266        267        284        283        267        268        285        284        268        269        286        285        269        270        287        286        270        271        288        287        306        307          1          0        307        308          2          1        308        309          3          2        309        310          4          3        310        311          5          4        311        312          6          5        312        313          7          6        313        314          8          7        314        315          9          8        315        316         10          9        316        317         11         10        317        318         12         11        318        319         13         12        319        320         14         13        320        321         15         14        321        322         16         15        323        324        307        306        324        325        308        307        325        326        309        308        326        327        310        309        327        328        311        310        328        329        312        311        329        330        313        312        330        331        314        313        331        332        315        314        332        333        316        315        333        334        317        316        334        335        318        317        335        336        319        318        336        337        320        319        337        338        321        320        338        339        322        321        340        341        324        323        341        342        325        324        342        343        326        325        343        344        327        326        344        345        328        327        345        346        329        328        346        347        330        329        347        348        331        330        348        349        332        331        349        350        333        332        350        351        334        333        351        352        335        334        352        353        336        335        353        354        337        336        354        355        338        337        355        356        339        338        357        358        341        340        358        359        342        341        359        360        343        342        360        361        344        343        361        362        345        344        362        363        346        345        363        364        347        346        364        365        348        347        365        366        349        348        366        367        350        349        367        368        351        350        368        369        352        351        369        370        353        352        370        371        354        353        371        372        355        354        372        373        356        355        374        375        358        357        375        376        359        358        376        377        360        359        377        378        361        360        378        379        362        361        379        380        363        362        380        381        364        363        381        382        365        364        382        383        366        365        383        384        367        366        384        385        368        367        385        386        369        368        386        387        370        369        387        388        371        370        388        389        372        371        389        390        373        372        391        392        375        374        392        393        376        375        393        394        377        376        394        395        378        377        395        396        379        378        396        397        380        379        397        398        381        380        398        399        382        381        399        400        383        382        400        401        384        383        401        402        385        384        402        403        386        385        403        404        387        386        404        405        388        387        405        406        389        388        406        407        390        389        408        409        392        391        409        410        393        392        410        411        394        393        411        412        395        394        412        413        396        395        413        414        397        396        414        415        398        397        415        416        399        398        416        417        400        399        417        418        401        400        418        419        402        401        419        420        403        402        420        421        404        403        421        422        405        404        422        423        406        405        423        424        407        406        425        426        409        408        426        427        410        409        427        428        411        410        428        429        412        411        429        430        413        412        430        431        414        413        431        432        415        414        432        433        416        415        433        434        417        416        434        435        418        417        435        436        419        418        436        437        420        419        437        438        421        420        438        439        422        421        439        440        423        422        440        441        424        423        442        443        426        425        443        444        427        426        444        445        428        427        445        446        429        428        446        447        430        429        447        448        431        430        448        449        432        431        449        450        433        432        450        451        434        433        451        452        435        434        452        453        436        435        453        454        437        436        454        455        438        437        455        456        439        438        456        457        440        439        457        458        441        440        459        460        443        442        460        461        444        443        461        462        445        444        462        463        446        445        463        464        447        446        464        465        448        447        465        466        449        448        466        467        450        449        467        468        451        450        468        469        452        451        469        470        453        452        470        471        454        453        471        472        455        454        472        473        456        455        473        474        457        456        474        475        458        457        476        477        460        459        477        478        461        460        478        479        462        461        479        480        463        462        480        481        464        463        481        482        465        464        482        483        466        465        483        484        467        466        484        485        468        467        485        486        469        468        486        487        470        469        487        488        471        470        488        489        472        471        489        490        473        472        490        491        474        473        491        492        475        474        493        494        477        476        494        495        478        477        495        496        479        478        496        497        480        479        497        498        481        480        498        499        482        481        499        500        483        482        500        501        484        483        501        502        485        484        502        503        486        485        503        504        487        486        504        505        488        487        505        506        489        488        506        507        490        489        507        508        491        490        508        509        492        491        510        511        494        493        511        512        495        494        512        513        496        495        513        514        497        496        514        515        498        497        515        516        499        498        516        517        500        499        517        518        501        500        518        519        502        501        519        520        503        502        520        521        504        503        521        522        505        504        522        523        506        505        523        524        507        506        524        525        508        507        525        526        509        508        527        528        511        510        528        529        512        511        529        530        513        512        530        531        514        513        531        532        515        514        532        533        516        515        533        534        517        516        534        535        518        517        535        536        519        518        536        537        520        519        537        538        521        520        538        539        522        521        539        540        523        522        540        541        524        523        541        542        525        524        542        543        526        525        544        545        528        527        545        546        529        528        546        547        530        529        547        548        531        530        548        549        532        531        549        550        533        532        550        551        534        533        551        552        535        534        552        553        536        535        553        554        537        536        554        555        538        537        555        556        539        538        556        557        540        539        557        558        541        540        558        559        542        541        559        560        543        542        561        562        545        544        562        563        546        545        563        564        547        546        564        565        548        547        565        566        549        548        566        567        550        549        567        568        551        550        568        569        552        551        569        570        553        552        570        571        554        553        571        572        555        554        572        573        556        555        573        574        557        556        574        575        558        557        575        576        559        558        576        577        560        559        578        579        596        595        579        580        597        596        580        581        598        597        581        582        599        598        582        583        600        599        583        584        601        600        584        585        602        601        585        586        603        602        586        587        604        603        587        588        605        604        588        589        606        605        589        590        607        606        590        591        608        607        591        592        609        608        592        593        610        609        593        594        611        610        595        596        613        612        596        597        614        613        597        598        615        614        598        599        616        615        599        600        617        616        600        601        618        617        601        602        619        618        602        603        620        619        603        604        621        620        604        605        622        621        605        606        623        622        606        607        624        623        607        608        625        624        608        609        626        625        609        610        627        626        610        611        628        627        612        613        630        629        613        614        631        630        614        615        632        631        615        616        633        632        616        617        634        633        617        618        635        634        618        619        636        635        619        620        637        636        620        621        638        637        621        622        639        638        622        623        640        639        623        624        641        640        624        625        642        641        625        626        643        642        626        627        644        643        627        628        645        644        629        630        647        646        630        631        648        647        631        632        649        648        632        633        650        649        633        634        651        650        634        635        652        651        635        636        653        652        636        637        654        653        637        638        655        654        638        639        656        655        639        640        657        656        640        641        658        657        641        642        659        658        642        643        660        659        643        644        661        660        644        645        662        661        646        647        664        663        647        648        665        664        648        649        666        665        649        650        667        666        650        651        668        667        651        652        669        668        652        653        670        669        653        654        671        670        654        655        672        671        655        656        673        672        656        657        674        673        657        658        675        674        658        659        676        675        659        660        677        676        660        661        678        677        661        662        679        678        663        664        681        680        664        665        682        681        665        666        683        682        666        667        684        683        667        668        685        684        668        669        686        685        669        670        687        686        670        671        688        687        671        672        689        688        672        673        690        689        673        674        691        690        674        675        692        691        675        676        693        692        676        677        694        693        677        678        695        694        678        679        696        695        680        681        698        697        681        682        699        698        682        683        700        699        683        684        701        700        684        685        702        701        685        686        703        702        686        687        704        703        687        688        705        704        688        689        706        705        689        690        707        706        690        691        708        707        691        692        709        708        692        693        710        709        693        694        711        710        694        695        712        711        695        696        713        712        697        698        715        714        698        699        716        715        699        700        717        716        700        701        718        717        701        702        719        718        702        703        720        719        703        704        721        720        704        705        722        721        705        706        723        722        706        707        724        723        707        708        725        724        708        709        726        725        709        710        727        726        710        711        728        727        711        712        729        728        712        713        730        729        714        715        732        731        715        716        733        732        716        717        734        733        717        718        735        734        718        719        736        735        719        720        737        736        720        721        738        737        721        722        739        738        722        723        740        739        723        724        741        740        724        725        742        741        725        726        743        742        726        727        744        743        727        728        745        744        728        729        746        745        729        730        747        746        731        732        749        748        732        733        750        749        733        734        751        750        734        735        752        751        735        736        753        752        736        737        754        753        737        738        755        754        738        739        756        755        739        740        757        756        740        741        758        757        741        742        759        758        742        743        760        759        743        744        761        760        744        745        762        761        745        746        763        762        746        747        764        763        748        749        766        765        749        750        767        766        750        751        768        767        751        752        769        768        752        753        770        769        753        754        771        770        754        755        772        771        755        756        773        772        756        757        774        773        757        758        775        774        758        759        776        775        759        760        777        776        760        761        778        777        761        762        779        778        762        763        780        779        763        764        781        780        765        766        783        782        766        767        784        783        767        768        785        784        768        769        786        785        769        770        787        786        770        771        788        787        771        772        789        788        772        773        790        789        773        774        791        790        774        775        792        791        775        776        793        792        776        777        794        793        777        778        795        794        778        779        796        795        779        780        797        796        780        781        798        797        782        783        800        799        783        784        801        800        784        785        802        801        785        786        803        802        786        787        804        803        787        788        805        804        788        789        806        805        789        790        807        806        790        791        808        807        791        792        809        808        792        793        810        809        793        794        811        810        794        795        812        811        795        796        813        812        796        797        814        813        797        798        815        814        799        800        817        816        800        801        818        817        801        802        819        818        802        803        820        819        803        804        821        820        804        805        822        821        805        806        823        822        806        807        824        823        807        808        825        824        808        809        826        825        809        810        827        826        810        811        828        827        811        812        829        828        812        813        830        829        813        814        831        830        814        815        832        831        816        817        834        833        817        818        835        834        818        819        836        835        819        820        837        836        820        821        838        837        821        822        839        838        822        823        840        839        823        824        841        840        824        825        842        841        825        826        843        842        826        827        844        843        827        828        845        844        828        829        846        845        829        830        847        846        830        831        848        847        831        832        849        848        833        834        562        561        834        835        563        562        835        836        564        563        836        837        565        564        837        838        566        565        838        839        567        566        839        840        568        567        840        841        569        568        841        842        570        569        842        843        571        570        843        844        572        571        844        845        573        572        845        846        574        573        846        847        575        574        847        848        576        575        848        849        577        576        884        885        579        578        885        886        580        579        886        887        581        580        887        888        582        581        888        889        583        582        889        890        584        583        890        891        585        584        891        892        586        585        892        893        587        586        893        894        588        587        894        895        589        588        895        896        590        589        896        897        591        590        897        898        592        591        898        899        593        592        899        900        594        593        901        902        885        884        902        903        886        885        903        904        887        886        904        905        888        887        905        906        889        888        906        907        890        889        907        908        891        890        908        909        892        891        909        910        893        892        910        911        894        893        911        912        895        894        912        913        896        895        913        914        897        896        914        915        898        897        915        916        899        898        916        917        900        899        918        919        902        901        919        920        903        902        920        921        904        903        921        922        905        904        922        923        906        905        923        924        907        906        924        925        908        907        925        926        909        908        926        927        910        909        927        928        911        910        928        929        912        911        929        930        913        912        930        931        914        913        931        932        915        914        932        933        916        915        933        934        917        916        935        936        919        918        936        937        920        919        937        938        921        920        938        939        922        921        939        940        923        922        940        941        924        923        941        942        925        924        942        943        926        925        943        944        927        926        944        945        928        927        945        946        929        928        946        947        930        929        947        948        931        930        948        949        932        931        949        950        933        932        950        951        934        933        952        953        936        935        953        954        937        936        954        955        938        937        955        956        939        938        956        957        940        939        957        958        941        940        958        959        942        941        959        960        943        942        960        961        944        943        961        962        945        944        962        963        946        945        963        964        947        946        964        965        948        947        965        966        949        948        966        967        950        949        967        968        951        950        969        970        953        952        970        971        954        953        971        972        955        954        972        973        956        955        973        974        957        956        974        975        958        957        975        976        959        958        976        977        960        959        977        978        961        960        978        979        962        961        979        980        963        962        980        981        964        963        981        982        965        964        982        983        966        965        983        984        967        966        984        985        968        967        986        987        970        969        987        988        971        970        988        989        972        971        989        990        973        972        990        991        974        973        991        992        975        974        992        993        976        975        993        994        977        976        994        995        978        977        995        996        979        978        996        997        980        979        997        998        981        980        998        999        982        981        999       1000        983        982       1000       1001        984        983       1001       1002        985        984       1003       1004        987        986       1004       1005        988        987       1005       1006        989        988       1006       1007        990        989       1007       1008        991        990       1008       1009        992        991       1009       1010        993        992       1010       1011        994        993       1011       1012        995        994       1012       1013        996        995       1013       1014        997        996       1014       1015        998        997       1015       1016        999        998       1016       1017       1000        999       1017       1018       1001       1000       1018       1019       1002       1001       1020       1021       1004       1003       1021       1022       1005       1004       1022       1023       1006       1005       1023       1024       1007       1006       1024       1025       1008       1007       1025       1026       1009       1008       1026       1027       1010       1009       1027       1028       1011       1010       1028       1029       1012       1011       1029       1030       1013       1012       1030       1031       1014       1013       1031       1032       1015       1014       1032       1033       1016       1015       1033       1034       1017       1016       1034       1035       1018       1017       1035       1036       1019       1018       1037       1038       1021       1020       1038       1039       1022       1021       1039       1040       1023       1022       1040       1041       1024       1023       1041       1042       1025       1024       1042       1043       1026       1025       1043       1044       1027       1026       1044       1045       1028       1027       1045       1046       1029       1028       1046       1047       1030       1029       1047       1048       1031       1030       1048       1049       1032       1031       1049       1050       1033       1032       1050       1051       1034       1033       1051       1052       1035       1034       1052       1053       1036       1035       1054       1055       1038       1037       1055       1056       1039       1038       1056       1057       1040       1039       1057       1058       1041       1040       1058       1059       1042       1041       1059       1060       1043       1042       1060       1061       1044       1043       1061       1062       1045       1044       1062       1063       1046       1045       1063       1064       1047       1046       1064       1065       1048       1047       1065       1066       1049       1048       1066       1067       1050       1049       1067       1068       1051       1050       1068       1069       1052       1051       1069       1070       1053       1052       1071       1072       1055       1054       1072       1073       1056       1055       1073       1074       1057       1056       1074       1075       1058       1057       1075       1076       1059       1058       1076       1077       1060       1059       1077       1078       1061       1060       1078       1079       1062       1061       1079       1080       1063       1062       1080       1081       1064       1063       1081       1082       1065       1064       1082       1083       1066       1065       1083       1084       1067       1066       1084       1085       1068       1067       1085       1086       1069       1068       1086       1087       1070       1069       1088       1089       1072       1071       1089       1090       1073       1072       1090       1091       1074       1073       1091       1092       1075       1074       1092       1093       1076       1075       1093       1094       1077       1076       1094       1095       1078       1077       1095       1096       1079       1078       1096       1097       1080       1079       1097       1098       1081       1080       1098       1099       1082       1081       1099       1100       1083       1082       1100       1101       1084       1083       1101       1102       1085       1084       1102       1103       1086       1085       1103       1104       1087       1086       1105       1106       1089       1088       1106       1107       1090       1089       1107       1108       1091       1090       1108       1109       1092       1091       1109       1110       1093       1092       1110       1111       1094       1093       1111       1112       1095       1094       1112       1113       1096       1095       1113       1114       1097       1096       1114       1115       1098       1097       1115       1116       1099       1098       1116       1117       1100       1099       1117       1118       1101       1100       1118       1119       1102       1101       1119       1120       1103       1102       1120       1121       1104       1103       1122       1123       1106       1105       1123       1124       1107       1106       1124       1125       1108       1107       1125       1126       1109       1108       1126       1127       1110       1109       1127       1128       1111       1110       1128       1129       1112       1111       1129       1130       1113       1112       1130       1131       1114       1113       1131       1132       1115       1114       1132       1133       1116       1115       1133       1134       1117       1116       1134       1135       1118       1117       1135       1136       1119       1118       1136       1137       1120       1119       1137       1138       1121       1120        272        273       1123       1122        273        274       1124       1123        274        275       1125       1124        275        276       1126       1125        276        277       1127       1126        277        278       1128       1127        278        279       1129       1128        279        280       1130       1129        280        281       1131       1130        281        282       1132       1131        282        283       1133       1132        283        284       1134       1133        284        285       1135       1134        285        286       1136       1135        286        287       1137       1136        287        288       1138       1137 </DataArray>
<DataArray type="Int32"                                    Name="offsets"                                                      NumberOfComponents=" 1" format="ascii">
         4          8         12         16         20         24         28         32         36         40         44         48         52         56         60         64         68         72         76         80         84         88         92         96        100        104        108        112        116        120        124        128        132        136        140        144        148        152        156        160        164        168        172        176        180        184        188        192        196        200        204        208        212        216        220        224        228        232        236        240        244        248        252        256        260        264        268        272        276        280        284        288        292        296        300        304        308        312        316        320        324        328        332        336        340        344        348        352        356        360        364        368        372        376        380        384        388        392        396        400        404        408        412        416        420        424        428        432        436        440        444        448        452        456        460        464        468        472        476        480        484        488        492        496        500        504        508        512        516        520        524        528        532        536        540        544        548        552        556        560        564        568        572        576        580        584        588        592        596        600        604        608        612        616        620        624        628        632        636        640        644        648        652        656        660        664        668        672        676        680        684        688        692        696        700        704        708        712        716        720        724        728        732        736        740        744        748        752        756        760        764        768        772        776        780        784        788        792        796        800        804        808        812        816        820        824        828        832        836        840        844        848        852        856        860        864        868        872        876        880        884        888        892        896        900        904        908        912        916        920        924        928        932        936        940        944        948        952        956        960        964        968        972        976        980        984        988        992        996       1000       1004       1008       1012       1016       1020       1024       1028       1032       1036       1040       1044       1048       1052       1056       1060       1064       1068       1072       1076       1080       1084       1088       1092       1096       1100       1104       1108       1112       1116       1120       1124       1128       1132       1136       1140       1144       1148       1152       1156       1160       1164       1168       1172       1176       1180       1184       1188       1192       1196       1200       1204       1208       1212       1216       1220       1224       1228       1232       1236       1240       1244       1248       1252       1256       1260       1264       1268       1272       1276       1280       1284       1288       1292       1296       1300       1304       1308       1312       1316       1320       1324       1328       1332       1336       1340       1344       1348       1352       1356       1360       1364       1368       1372       1376       1380       1384       1388       1392       1396       1400       1404       1408       1412       1416       1420       1424       1428       1432       1436       1440       1444       1448       1452       1456       1460       1464       1468       1472       1476       1480       1484       1488       1492       1496       1500       1504       1508       1512       1516       1520       1524       1528       1532       1536       1540       1544       1548       1552       1556       1560       1564       1568       1572       1576       1580       1584       1588       1592       1596       1600       1604       1608       1612       1616       1620       1624       1628       1632       1636       1640       1644       1648       1652       1656       1660       1664       1668       1672       1676       1680       1684       1688       1692       1696       1700       1704       1708       1712       1716       1720       1724       1728       1732       1736       1740       1744       1748       1752       1756       1760       1764       1768       1772       1776       1780       1784       1788       1792       1796       1800       1804       1808       1812       1816       1820       1824       1828       1832       1836       1840       1844       1848       1852       1856       1860       1864       1868       1872       1876       1880       1884       1888       1892       1896       1900       1904       1908       1912       1916       1920       1924       1928       1932       1936       1940       1944       1948       1952       1956       1960       1964       1968       1972       1976       1980       1984       1988       1992       1996       2000       2004       2008       2012       2016       2020       2024       2028       2032       2036       2040       2044       2048       2052       2056       2060       2064       2068       2072       2076       2080       2084       2088       2092       2096       2100       2104       2108       2112       2116       2120       2124       2128       2132       2136       2140       2144       2148       2152       2156       2160       2164       2168       2172       2176       2180       2184       2188       2192       2196       2200       2204       2208       2212       2216       2220       2224       2228       2232       2236       2240       2244       2248       2252       2256       2260       2264       2268       2272       2276       2280       2284       2288       2292       2296       2300       2304       2308       2312       2316       2320       2324       2328       2332       2336       2340       2344       2348       2352       2356       2360       2364       2368       2372       2376       2380       2384       2388       2392       2396       2400       2404       2408       2412       2416       2420       2424       2428       2432       2436       2440       2444       2448       2452       2456       2460       2464       2468       2472       2476       2480       2484       2488       2492       2496       2500       2504       2508       2512       2516       2520       2524       2528       2532       2536       2540       2544       2548       2552       2556       2560       2564       2568       2572       2576       2580       2584       2588       2592       2596       2600       2604       2608       2612       2616       2620       2624       2628       2632       2636       2640       2644       2648       2652       2656       2660       2664       2668       2672       2676       2680       2684       2688       2692       2696       2700       2704       2708       2712       2716       2720       2724       2728       2732       2736       2740       2744       2748       2752       2756       2760       2764       2768       2772       2776       2780       2784       2788       2792       2796       2800       2804       2808       2812       2816       2820       2824       2828       2832       2836       2840       2844       2848       2852       2856       2860       2864       2868       2872       2876       2880       2884       2888       2892       2896       2900       2904       2908       2912       2916       2920       2924       2928       2932       2936       2940       2944       2948       2952       2956       2960       2964       2968       2972       2976       2980       2984       2988       2992       2996       3000       3004       3008       3012       3016       3020       3024       3028       3032       3036       3040       3044       3048       3052       3056       3060       3064       3068       3072       3076       3080       3084       3088       3092       3096       3100       3104       3108       3112       3116       3120       3124       3128       3132       3136       3140       3144       3148       3152       3156       3160       3164       3168       3172       3176       3180       3184       3188       3192       3196       3200       3204       3208       3212       3216       3220       3224       3228       3232       3236       3240       3244       3248       3252       3256       3260       3264       3268       3272       3276       3280       3284       3288       3292       3296       3300       3304       3308       3312       3316       3320       3324       3328       3332       3336       3340       3344       3348       3352       3356       3360       3364       3368       3372       3376       3380       3384       3388       3392       3396       3400       3404       3408       3412       3416       3420       3424       3428       3432       3436       3440       3444       3448       3452       3456       3460       3464       3468       3472       3476       3480       3484       3488       3492       3496       3500       3504       3508       3512       3516       3520       3524       3528       3532       3536       3540       3544       3548       3552       3556       3560       3564       3568       3572       3576       3580       3584       3588       3592       3596       3600       3604       3608       3612       3616       3620       3624       3628       3632       3636       3640       3644       3648       3652       3656       3660       3664       3668       3672       3676       3680       3684       3688       3692       3696       3700       3704       3708       3712       3716       3720       3724       3728       3732       3736       3740       3744       3748       3752       3756       3760       3764       3768       3772       3776       3780       3784       3788       3792       3796       3800       3804       3808       3812       3816       3820       3824       3828       3832       3836       3840       3844       3848       3852       3856       3860       3864       3868       3872       3876       3880       3884       3888       3892       3896       3900       3904       3908       3912       3916       3920       3924       3928       3932       3936       3940       3944       3948       3952       3956       3960       3964       3968       3972       3976       3980       3984       3988       3992       3996       4000       4004       4008       4012       4016       4020       4024       4028       4032       4036       4040       4044       4048       4052       4056       4060       4064       4068       4072       4076       4080       4084       4088       4092       4096 </DataArray>
<DataArray type="UInt8"                                    Name="types"                                                      NumberOfComponents=" 1" format="ascii">
         9          9          9          9          9          9          9          9          9          9          9          9          9          9          9          9          9          9          9          9          9          9          9          9          9          9          9          9          9          9          9          9          9          9          9          9          9          9          9          9          9          9          9          9          9          9          9          9          9          9          9          9          9          9          9          9          9          9          9          9          9          9          9          9          9          9          9          9          9          9          9          9          9          9          9          9          9          9          9          9          9          9          9          9          9          9          9          9          9          9          9          9          9          9          9          9          9          9          9          9          9          9          9          9          9          9          9          9          9          9          9          9          9          9          9          9          9          9          9          9          9          9          9          9          9          9          9          9          9          9          9          9          9          9          9          9          9          9          9          9          9          9          9          9          9          9          9          9          9          9          9          9          9          9          9          9          9          9          9          9          9          9          9          9          9          9          9          9          9          9          9          9          9          9          9          9          9          9          9          9          9          9          9          9          9          9          9          9          9          9          9          9          9          9          9          9          9          9          9          9          9          9          9          9          9          9          9          9          9          9          9          9          9          9          9          9          9          9          9          9          9          9          9          9          9          9          9          9          9          9          9          9          9          9          9          9          9          9          9          9          9          9          9          9          9          9          9          9          9          9          9          9          9          9          9          9          9          9          9          9          9          9          9          9          9          9          9          9          9          9          9          9          9          9          9          9          9          9          9          9          9          9          9          9          9          9          9          9          9          9          9          9          9          9          9          9          9          9          9          9          9          9          9          9          9          9          9          9          9          9          9          9          9          9          9          9          9          9          9          9          9          9          9          9          9          9          9          9          9          9          9          9          9          9          9          9          9          9          9          9          9          9          9          9          9          9          9          9          9          9          9          9          9          9          9          9          9          9          9          9          9          9          9          9          9          9          9          9          9          9          9          9          9          9          9          9          9          9          9          9          9          9          9          9          9          9          9          9          9          9          9          9          9          9          9          9          9          9          9          9          9          9          9          9          9          9          9          9          9          9          9          9          9          9          9          9          9          9          9          9          9          9          9          9          9          9          9          9          9          9          9          9          9          9          9          9          9          9          9          9          9          9          9          9          9          9          9          9          9          9          9          9          9          9          9          9          9          9          9          9          9          9          9          9          9          9          9          9          9          9          9          9          9          9          9          9          9          9          9          9          9          9          9          9          9          9          9          9          9          9          9          9          9          9          9          9          9          9          9          9          9          9          9          9          9          9          9          9          9          9          9          9          9          9          9          9          9          9          9          9          9          9          9          9          9          9          9          9          9          9          9          9          9          9          9          9          9          9          9          9          9          9          9          9          9          9          9          9          9          9          9          9          9          9          9          9          9          9          9          9          9          9          9          9          9          9          9          9          9          9          9          9          9          9          9          9          9          9          9          9          9          9          9          9          9          9          9          9          9          9          9          9          9          9          9          9          9          9          9          9          9          9          9          9          9          9          9          9          9          9          9          9          9          9          9          9          9          9          9          9          9          9          9          9          9          9          9          9          9          9          9          9          9          9          9          9          9          9          9          9          9          9          9          9          9          9          9          9          9          9          9          9          9          9          9          9          9          9          9          9          9          9          9          9          9          9          9          9          9          9          9          9          9          9          9          9          9          9          9          9          9          9          9          9          9          9          9          9          9          9          9          9          9          9          9          9          9          9          9          9          9          9          9          9          9          9          9          9          9          9          9          9          9          9          9          9          9          9          9          9          9          9          9          9          9          9          9          9          9          9          9          9          9          9          9          9          9          9          9          9          9          9          9          9          9          9          9          9          9          9          9          9          9          9          9          9          9          9          9          9          9          9          9          9          9          9          9          9          9          9          9          9          9          9          9          9          9          9          9          9          9          9          9          9          9          9          9          9          9          9          9          9          9          9          9          9          9          9          9          9          9          9          9          9          9          9          9          9          9          9          9          9          9          9          9          9          9          9          9          9          9          9          9          9          9          9          9          9          9          9          9          9          9          9          9          9          9          9          9          9          9          9          9          9          9          9          9          9          9          9          9          9          9          9          9          9          9          9          9          9          9          9          9          9          9          9          9          9          9          9          9          9          9          9          9          9          9          9          9          9          9          9          9          9          9          9          9          9          9          9          9          9          9          9          9          9          9          9          9          9          9          9          9          9          9          9          9          9          9          9          9          9          9          9          9          9          9          9          9          9          9          9          9          9          9          9          9          9          9          9          9          9          9          9          9          9          9          9          9          9          9          9          9          9          9          9          9          9          9          9          9          9          9          9          9          9          9          9          9          9          9          9          9          9          9          9          9          9          9          9          9          9          9          9          9          9          9          9          9          9          9          9          9          9          9          9          9          9          9          9          9          9          9          9          9          9          9          9          9          9          9          9          9          9          9          9          9          9          9          9          9          9          9          9          9          9          9          9          9          9          9          9          9          9 </DataArray>
</Cells>
<CellData>
<DataArray type="Int32"                                    Name="material"                                                      NumberOfComponents=" 1" format="ascii">
         1          1          1          1          1          1          1          1          1          1          1          1          1          1          1          1          1          1          1          1          1          1          1          1          1          1          1          1          1          1          1          1          1          1          1          1          1          1          1          1          1          1          1          1          1          1          1          1          1          1          1          1          1          1          1          1          1          1          1          1          1          1          1          1          1          1          1          1          1          1          1          1          1          1          1          1          1          1          1          1          1          1          1          1          1          1          1          1          1          1          1          1          1          1          1          1          1          1          1          1          1          1          1          1          1          1          1          1          1          1          1          1          1          1          1          1          1          1          1          1          1          1          1          1          1          1          1          1          1          1          1          1          1          1          1          1          1          1          1          1          1          1          1          1          1          1          1          1          1          1          1          1          1          1          1          1          1          1          1          1          1          1          1          1          1          1          1          1          1          1          1          1          1          1          1          1          1          1          1          1          1          1          1          1          1          1          1          1          1          1          1          1          1          1          1          1          1          1          1          1          1          1          1          1          1          1          1          1          1          1          1          1          1          1          1          1          1          1          1          1          1          1          1          1          1          1          1          1          1          1          1          1          1          1          1          1          1          1          1          1          1          1          1          1          1          1          1          1          1          1          1          1          1          1          1          1          1          1          1          1          1          1          1          1          1          1          1          1          1          1          1          1          1          1          1          1          1          1          1          1          1          1          1          1          1          1          1          1          1          1          1          1          1          1          1          1          1          1          1          1          1          1          1          1          1          1          1          1          1          1          1          1          1          1          1          1          1          1          1          1          1          1          1          1          1          1          1          1          1          1          1          1          1          1          1          1          1          1          1          1          1          1          1          1          1          1          1          1          1          1          1          1          1          1          1          1          1          1          1          1          1          1          1          1          1          1          1          1          1          1          1          1          1          1          1          1          1          1          1          1          1          1          1          1          1          1          1          1          1          1          1          1          1          1          1          1          1          1          1          1          1          1          1          1          1          1          1          1          1          1          1          1          1          1          1          1          1          1          1          1          1          1          1          1          1          1          1          1          1          1          1          1          1          1          1          1          1          1          1          1          1          1          1          1          1          1          1          1          1          1          1          1          1          1          1          1          1          1          1          1          1          1          1          1          1          1          1          1          1          1          1          1          1          1          1          1          1          1          1          1          1          1          1          1          1          1          1          1          1          1          1          1          1          1          1          1          1          1          1          1          1          1          1          1          1          1          1          1          1          1          1          1          1          1          1          1          1          1          1          1          1          1          1          1          1          1          1          1          1          1          1          1          1          1          1          1          1          1          1          1          1          1          1          1          1          1          1          1          1          1          1          1          1          1          1          1          1          1          1          1          1          1          1          1          1          1          1          1          1          1          1          1          1          1          1          1          1          1          1          1          1          1          1          1          1          1          1          1          1          1          1          1          1          1          1          1          1          1          1          1          1          1          1          1          1          1          1          1          1          1          1          1          1          1          1          1          1          1          1          1          1          1          1          1          1          1          1          1          1          1          1          1          1          1          1          1          1          1          1          1          1          1          1          1          1          1          1          1          1          1          1          1          1          1          1          1          1          1          1          1          1          1          1          1          1          1          1          1          1          1          1          1          1          1          1          1          1          1          1          1          1          1          1          1          1          1          1          1          1          1          1          1          1          1          1          1          1          1          1          1          1          1          1          1          1          1          1          1          1          1          1          1          1          1          1          1          1          1          1          1          1          1          1          1          1          1          1          1          1          1          1          1          1          1          1          1          1          1          1          1          1          1          1          1          1          1          1          1          1          1          1          1          1          1          1          1          1          1          1          1          1          1          1          1          1          1          1          1          1          1          1          1          1          1          1          1          1          1          1          1          1          1          1          1          1          1          1          1          1          1          1          1          1          1          1          1          1          1          1          1          1          1          1          1          1          1          1          1          1          1          1          1          1          1          1          1          1          1          1          1          1          1          1          1          1          1          1          1          1          1          1          1          1          1          1          1          1          1          1          1          1          1          1          1          1          1          1          1          1          1          1          1          1          1          1          1          1          1          1          1          1          1          1          1          1          1          1          1          1          1          1          1          1          1          1          1          1          1          1          1          1          1          1          1          1          1          1          1          1          1          1          1          1          1          1          1          1          1          1          1          1          1          1          1          1          1          1          1          1          1          1          1          1          1          1          1          1          1          1          1          1          1          1          1          1          1          1          1          1          1          1          1          1          1          1          1          1          1          1          1          1          1          1          1          1          1          1          1          1          1          1          1          1          1          1          1          1          1          1          1          1          1          1          1          1          1          1          1          1          1          1          1          1          1          1          1          1          1          1          1          1          1          1          1          1          1          1          1          1          1          1          1          1          1          1          1          1          1          1          1          1          1          1          1          1          1          1          1          1          1          1          1          1          1          1          1          1          1          1          1          1          1          1          1 </DataArray>
</CellData>
<PointData>
<DataArray type="Float64"                                    Name="u"                                                      NumberOfComponents=" 3" format="ascii">
             -0.000003307               0.000000000               0.999999997              -0.000016027               0.000000000               0.999999997              -0.000022450              -0.000000000               0.999999997              -0.000026380              -0.000000000               0.999999997              -0.000029573              -0.000000000               0.999999997              -0.000032744               0.000000000               0.999999997              -0.000036145              -0.000000000               0.999999997              -0.000039996               0.000000000               0.999999997              -0.000044301               0.000000000               0.999999997              -0.000049051              -0.000000000               0.999999997              -0.000054271              -0.000000000               0.999999997              -0.000059975              -0.000000000               0.999999997              -0.000066164               0.000000000               0.999999997              -0.000072869              -0.000000000               0.999999997              -0.000080123              -0.000000000               0.999999997              -0.000087918              -0.000000000               0.999999997              -0.000096263               0.000000000               0.999999997              -0.000003368               0.000031099               0.999999997              -0.000015605               0.000027974               0.999999997              -0.000021714               0.000027251               0.999999997              -0.000025536               0.000027974               0.999999997              -0.000028680               0.000029640               0.999999997              -0.000031880               0.000031849               0.999999997              -0.000035404               0.000034450               0.999999997              -0.000039338               0.000037351               0.999999997              -0.000043748               0.000040459               0.999999997              -0.000048631               0.000043800               0.999999997              -0.000054015               0.000047330               0.999999997              -0.000059877               0.000050991               0.999999997              -0.000066204               0.000054748               0.999999997              -0.000073004               0.000058696               0.999999997              -0.000080337               0.000062675               0.999999997              -0.000088242               0.000066722               0.999999997              -0.000096710               0.000070662               0.999999997              -0.000003447               0.000061906               0.999999997              -0.000014332               0.000055543               0.999999997              -0.000019665               0.000054262               0.999999997              -0.000023154               0.000055856               0.999999997              -0.000026284               0.000059183               0.999999997              -0.000029596               0.000063663               0.999999997              -0.000033285               0.000068906               0.999999997              -0.000037486               0.000074711               0.999999997              -0.000042269               0.000080999               0.999999997              -0.000047603               0.000087658               0.999999997              -0.000053477               0.000094805               0.999999997              -0.000059800               0.000102057               0.999999997              -0.000066558               0.000109574               0.999999997              -0.000073794               0.000117449               0.999999997              -0.000081551               0.000125625               0.999999997              -0.000089895               0.000133937               0.999999997              -0.000098809               0.000142321               0.999999997              -0.000003517               0.000092069               0.999999997              -0.000012196               0.000082465               0.999999997              -0.000016486               0.000080827               0.999999997              -0.000019608               0.000083455               0.999999997              -0.000022719               0.000088605               0.999999997              -0.000026286               0.000095413               0.999999997              -0.000030434               0.000103404               0.999999997              -0.000035249               0.000112265               0.999999997              -0.000040725               0.000121800               0.999999997              -0.000046744               0.000131891               0.999999997              -0.000053301               0.000142501               0.999999997              -0.000060397               0.000153457               0.999999997              -0.000067994               0.000164704               0.999999997              -0.000076082               0.000176517               0.999999997              -0.000084677               0.000188848               0.999999997              -0.000093789               0.000201617               0.999999997              -0.000103407               0.000214592               0.999999997              -0.000003655               0.000121234               0.999999997              -0.000009359               0.000108515               0.999999997              -0.000012459               0.000106823               0.999999997              -0.000015332               0.000110707               0.999999997              -0.000018677               0.000117866               0.999999997              -0.000022769               0.000127151               0.999999997              -0.000027712               0.000137923               0.999999997              -0.000033429               0.000149857               0.999999997              -0.000039815               0.000162581               0.999999997              -0.000046844               0.000176017               0.999999997              -0.000054462               0.000190105               0.999999997              -0.000062635               0.000204707               0.999999997              -0.000071367               0.000219663               0.999999997              -0.000080603               0.000235307               0.999999997              -0.000090316               0.000251770               0.999999997              -0.000100493               0.000268775               0.999999997              -0.000111044               0.000286201               0.999999997              -0.000003730               0.000149181               0.999999997              -0.000005973               0.000133574               0.999999997              -0.000008014               0.000132122               0.999999997              -0.000010877               0.000137439               0.999999997              -0.000014790               0.000146664               0.999999997              -0.000019743               0.000158446               0.999999997              -0.000025691               0.000172096               0.999999997              -0.000032481               0.000187042               0.999999997              -0.000040068               0.000203004               0.999999997              -0.000048357               0.000219769               0.999999997              -0.000057270               0.000237229               0.999999997              -0.000066777               0.000255423               0.999999997              -0.000076787               0.000274176               0.999999997              -0.000087302               0.000293643               0.999999997              -0.000098238               0.000314077               0.999999997              -0.000109516               0.000335217               0.999999997              -0.000121069               0.000356779               0.999999997              -0.000003722               0.000175629               0.999999997              -0.000002278               0.000157575               0.999999997              -0.000003550               0.000156584               0.999999997              -0.000006781               0.000163347               0.999999997              -0.000011539               0.000174712               0.999999997              -0.000017582               0.000189064               0.999999997              -0.000024757               0.000205537               0.999999997              -0.000032915               0.000223501               0.999999997              -0.000041903               0.000242637               0.999999997              -0.000051591               0.000262743               0.999999997              -0.000061812               0.000283643               0.999999997              -0.000072506               0.000305545               0.999999997              -0.000083716               0.000328187               0.999999997              -0.000095429               0.000351646               0.999999997              -0.000107565               0.000376054               0.999999997              -0.000119979               0.000401181               0.999999997              -0.000132568               0.000426623               0.999999997              -0.000003695               0.000200235               0.999999997               0.000001457               0.000180419               0.999999997               0.000000572               0.000180027               0.999999997              -0.000003375               0.000188313               0.999999997              -0.000009225               0.000201810               0.999999997              -0.000016557               0.000218725               0.999999997              -0.000025153               0.000238029               0.999999997              -0.000034781               0.000258934               0.999999997              -0.000045135               0.000281330               0.999999997              -0.000056091               0.000304878               0.999999997              -0.000067500               0.000329523               0.999999997              -0.000079483               0.000355228               0.999999997              -0.000091931               0.000381920               0.999999997              -0.000104859               0.000409505               0.999999997              -0.000118078               0.000437944               0.999999997              -0.000131441               0.000466832               0.999999997              -0.000144828               0.000495935               0.999999997              -0.000003697               0.000222621               0.999999997               0.000005112               0.000202113               0.999999997               0.000003998               0.000202292               0.999999997              -0.000000854               0.000212116               0.999999997              -0.000007867               0.000227788               0.999999997              -0.000016688               0.000247254               0.999999997              -0.000026716               0.000269384               0.999999997              -0.000037712               0.000293438               0.999999997              -0.000049329               0.000319200               0.999999997              -0.000061443               0.000346397               0.999999997              -0.000074124               0.000374953               0.999999997              -0.000087213               0.000404808               0.999999997              -0.000100694               0.000435747               0.999999997              -0.000114523               0.000467530               0.999999997              -0.000128507               0.000499850               0.999999997              -0.000142403               0.000532472               0.999999997              -0.000156301               0.000565185               0.999999997              -0.000003988               0.000243538               0.999999997               0.000007459               0.000224581               0.999999997               0.000007667               0.000222553               0.999999997               0.000003749               0.000229831               0.999999997              -0.000002383               0.000242807               0.999999997              -0.000010200               0.000259773               0.999999997              -0.000019136               0.000279545               0.999999997              -0.000028950               0.000301364               0.999999997              -0.000039377               0.000324809               0.999999997              -0.000050245               0.000349695               0.999999997              -0.000061452               0.000375964               0.999999997              -0.000072903               0.000403552               0.999999997              -0.000084595               0.000432307               0.999999997              -0.000096539               0.000462004               0.999999997              -0.000108713               0.000492415               0.999999997              -0.000120872               0.000523248               0.999999997              -0.000133006               0.000554441               0.999999997              -0.000004003               0.000262443               0.999999997               0.000008818               0.000246068               0.999999997               0.000010386               0.000243048               0.999999997               0.000007531               0.000248273               0.999999997               0.000002423               0.000258946               0.999999997              -0.000004217               0.000273566               0.999999997              -0.000011956               0.000291110               0.999999997              -0.000020501               0.000310793               0.999999997              -0.000029753               0.000332172               0.999999997              -0.000039462               0.000354876               0.999999997              -0.000049232               0.000378958               0.999999997              -0.000059061               0.000404362               0.999999997              -0.000068992               0.000430961               0.999999997              -0.000079079               0.000458482               0.999999997              -0.000089278               0.000486789               0.999999997              -0.000099439               0.000515726               0.999999997              -0.000109638               0.000545171               0.999999997              -0.000003811               0.000278941               0.999999997               0.000009216               0.000266016               0.999999997               0.000011867               0.000262968               0.999999997               0.000010087               0.000266858               0.999999997               0.000006193               0.000275723               0.999999997               0.000000756               0.000288388               0.999999997              -0.000005617               0.000303986               0.999999997              -0.000012880               0.000321749               0.999999997              -0.000020833               0.000341235               0.999999997              -0.000029223               0.000362201               0.999999997              -0.000037571               0.000384383               0.999999997              -0.000045740               0.000407815               0.999999997              -0.000053934               0.000432398               0.999999997              -0.000062092               0.000457926               0.999999997              -0.000070288               0.000484223               0.999999997              -0.000078208               0.000511107               0.999999997              -0.000085882               0.000538660               0.999999997              -0.000003386               0.000292765               0.999999997               0.000008677               0.000283690               0.999999997               0.000011934               0.000281356               0.999999997               0.000011148               0.000284676               0.999999997               0.000008365               0.000292268               0.999999997               0.000004289               0.000303427               0.999999997              -0.000000744               0.000317379               0.999999997              -0.000006544               0.000333567               0.999999997              -0.000013076               0.000351527               0.999999997              -0.000020027               0.000370991               0.999999997              -0.000026953               0.000391712               0.999999997              -0.000033534               0.000413661               0.999999997              -0.000039911               0.000436688               0.999999997              -0.000046326               0.000460615               0.999999997              -0.000052450               0.000485281               0.999999997              -0.000057939               0.000510566               0.999999997              -0.000062704               0.000536447               0.999999997              -0.000002753               0.000303696               0.999999997               0.000007318               0.000298368               0.999999997               0.000010557               0.000297218               0.999999997               0.000010477               0.000300424               0.999999997               0.000008694               0.000307376               0.999999997               0.000005915               0.000317438               0.999999997               0.000002232               0.000330248               0.999999997              -0.000002067               0.000345171               0.999999997              -0.000007051               0.000361807               0.999999997              -0.000012491               0.000380059               0.999999997              -0.000017920               0.000399704               0.999999997              -0.000022956               0.000420576               0.999999997              -0.000027694               0.000442451               0.999999997              -0.000032231               0.000465305               0.999999997              -0.000036410               0.000488920               0.999999997              -0.000039797               0.000513186               0.999999997              -0.000042109               0.000537982               0.999999997              -0.000001957               0.000311638               0.999999997               0.000005256               0.000309314               0.999999997               0.000007870               0.000309470               0.999999997               0.000008149               0.000312954               0.999999997               0.000007134               0.000319600               0.999999997               0.000005426               0.000329038               0.999999997               0.000003067               0.000340977               0.999999997               0.000000165               0.000354947               0.999999997              -0.000003166               0.000370717               0.999999997              -0.000006788               0.000388143               0.999999997              -0.000010547               0.000407083               0.999999997              -0.000014130               0.000427279               0.999999997              -0.000017169               0.000448575               0.999999997              -0.000019819               0.000470892               0.999999997              -0.000022338               0.000493967               0.999999997              -0.000024257               0.000517594               0.999999997              -0.000024970               0.000541718               0.999999997              -0.000001019               0.000316483               0.999999997               0.000002728               0.000316137               0.999999997               0.000004203               0.000317176               0.999999997               0.000004428               0.000320953               0.999999997               0.000003974               0.000327550               0.999999997               0.000003170               0.000336671               0.999999997               0.000002041               0.000348111               0.999999997               0.000000589               0.000361608               0.999999997              -0.000001072               0.000376991               0.999999997              -0.000002812               0.000393977               0.999999997              -0.000004793               0.000412430               0.999999997              -0.000006653               0.000432228               0.999999997              -0.000007968               0.000453248               0.999999997              -0.000009216               0.000475271               0.999999997              -0.000010511               0.000498160               0.999999997              -0.000011427               0.000521693               0.999999997              -0.000011380               0.000545645               0.999999997               0.000000000               0.000318047               0.999999997               0.000000000               0.000318431               0.999999997              -0.000000000               0.000319831               0.999999997               0.000000000               0.000323731               0.999999997              -0.000000000               0.000330361               0.999999997              -0.000000000               0.000339351               0.999999997              -0.000000000               0.000350586               0.999999997              -0.000000000               0.000364026               0.999999997              -0.000000000               0.000379360               0.999999997               0.000000000               0.000396169               0.999999997               0.000000000               0.000414416               0.999999997              -0.000000000               0.000434050               0.999999997              -0.000000000               0.000454910               0.999999997              -0.000000000               0.000476814               0.999999997               0.000000000               0.000499674               0.999999997               0.000000000               0.000523330               0.999999997               0.000000000               0.000547392               0.999999997              -0.000003307               0.000000000               0.999999997              -0.000016027               0.000000000               0.999999997              -0.000022450              -0.000000000               0.999999997              -0.000026380              -0.000000000               0.999999997              -0.000029573              -0.000000000               0.999999997              -0.000032744               0.000000000               0.999999997              -0.000036145              -0.000000000               0.999999997              -0.000039996               0.000000000               0.999999997              -0.000044301               0.000000000               0.999999997              -0.000049051              -0.000000000               0.999999997              -0.000054271              -0.000000000               0.999999997              -0.000059975              -0.000000000               0.999999997              -0.000066164               0.000000000               0.999999997              -0.000072869              -0.000000000               0.999999997              -0.000080123              -0.000000000               0.999999997              -0.000087918              -0.000000000               0.999999997              -0.000096263               0.000000000               0.999999997              -0.000003368              -0.000031099               0.999999997              -0.000015605              -0.000027974               0.999999997              -0.000021714              -0.000027251               0.999999997              -0.000025536              -0.000027974               0.999999997              -0.000028680              -0.000029640               0.999999997              -0.000031880              -0.000031849               0.999999997              -0.000035404              -0.000034450               0.999999997              -0.000039338              -0.000037351               0.999999997              -0.000043748              -0.000040459               0.999999997              -0.000048631              -0.000043800               0.999999997              -0.000054015              -0.000047330               0.999999997              -0.000059877              -0.000050991               0.999999997              -0.000066204              -0.000054748               0.999999997              -0.000073004              -0.000058696               0.999999997              -0.000080337              -0.000062675               0.999999997              -0.000088242              -0.000066722               0.999999997              -0.000096710              -0.000070662               0.999999997              -0.000003447              -0.000061906               0.999999997              -0.000014332              -0.000055543               0.999999997              -0.000019665              -0.000054262               0.999999997              -0.000023154              -0.000055856               0.999999997              -0.000026284              -0.000059183               0.999999997              -0.000029596              -0.000063663               0.999999997              -0.000033285              -0.000068906               0.999999997              -0.000037486              -0.000074711               0.999999997              -0.000042269              -0.000080999               0.999999997              -0.000047603              -0.000087658               0.999999997              -0.000053477              -0.000094805               0.999999997              -0.000059800              -0.000102057               0.999999997              -0.000066558              -0.000109574               0.999999997              -0.000073794              -0.000117449               0.999999997              -0.000081551              -0.000125625               0.999999997              -0.000089895              -0.000133937               0.999999997              -0.000098809              -0.000142321               0.999999997              -0.000003517              -0.000092069               0.999999997              -0.000012196              -0.000082465               0.999999997              -0.000016486              -0.000080827               0.999999997              -0.000019608              -0.000083455               0.999999997              -0.000022719              -0.000088605               0.999999997              -0.000026286              -0.000095413               0.999999997              -0.000030434              -0.000103404               0.999999997              -0.000035249              -0.000112265               0.999999997              -0.000040725              -0.000121800               0.999999997              -0.000046744              -0.000131891               0.999999997              -0.000053301              -0.000142501               0.999999997              -0.000060397              -0.000153457               0.999999997              -0.000067994              -0.000164704               0.999999997              -0.000076082              -0.000176517               0.999999997              -0.000084677              -0.000188848               0.999999997              -0.000093789              -0.000201617               0.999999997              -0.000103407              -0.000214592               0.999999997              -0.000003655              -0.000121234               0.999999997              -0.000009359              -0.000108515               0.999999997              -0.000012459              -0.000106823               0.999999997              -0.000015332              -0.000110707               0.999999997              -0.000018677              -0.000117866               0.999999997              -0.000022769              -0.000127151               0.999999997              -0.000027712              -0.000137923               0.999999997              -0.000033429              -0.000149857               0.999999997              -0.000039815              -0.000162581               0.999999997              -0.000046844              -0.000176017               0.999999997              -0.000054462              -0.000190105               0.999999997              -0.000062635              -0.000204707               0.999999997              -0.000071367              -0.000219663               0.999999997              -0.000080603              -0.000235307               0.999999997              -0.000090316              -0.000251770               0.999999997              -0.000100493              -0.000268775               0.999999997              -0.000111044              -0.000286201               0.999999997              -0.000003730              -0.000149181               0.999999997              -0.000005973              -0.000133574               0.999999997              -0.000008014              -0.000132122               0.999999997              -0.000010877              -0.000137439               0.999999997              -0.000014790              -0.000146664               0.999999997              -0.000019743              -0.000158446               0.999999997              -0.000025691              -0.000172096               0.999999997              -0.000032481              -0.000187042               0.999999997              -0.000040068              -0.000203004               0.999999997              -0.000048357              -0.000219769               0.999999997              -0.000057270              -0.000237229               0.999999997              -0.000066777              -0.000255423               0.999999997              -0.000076787              -0.000274176               0.999999997              -0.000087302              -0.000293643               0.999999997              -0.000098238              -0.000314077               0.999999997              -0.000109516              -0.000335217               0.999999997              -0.000121069              -0.000356779               0.999999997              -0.000003722              -0.000175629               0.999999997              -0.000002278              -0.000157575               0.999999997              -0.000003550              -0.000156584               0.999999997              -0.000006781              -0.000163347               0.999999997              -0.000011539              -0.000174712               0.999999997              -0.000017582              -0.000189064               0.999999997              -0.000024757              -0.000205537               0.999999997              -0.000032915              -0.000223501               0.999999997              -0.000041903              -0.000242637               0.999999997              -0.000051591              -0.000262743               0.999999997              -0.000061812              -0.000283643               0.999999997              -0.000072506              -0.000305545               0.999999997              -0.000083716              -0.000328187               0.999999997              -0.000095429              -0.000351646               0.999999997              -0.000107565              -0.000376054               0.999999997              -0.000119979              -0.000401181               0.999999997              -0.000132568              -0.000426623               0.999999997              -0.000003695              -0.000200235               0.999999997               0.000001457              -0.000180419               0.999999997               0.000000572              -0.000180027               0.999999997              -0.000003375              -0.000188313               0.999999997              -0.000009225              -0.000201810               0.999999997              -0.000016557              -0.000218725               0.999999997              -0.000025153              -0.000238029               0.999999997              -0.000034781              -0.000258934               0.999999997              -0.000045135              -0.000281330               0.999999997              -0.000056091              -0.000304878               0.999999997              -0.000067500              -0.000329523               0.999999997              -0.000079483              -0.000355228               0.999999997              -0.000091931              -0.000381920               0.999999997              -0.000104859              -0.000409505               0.999999997              -0.000118078              -0.000437944               0.999999997              -0.000131441              -0.000466832               0.999999997              -0.000144828              -0.000495935               0.999999997              -0.000003697              -0.000222621               0.999999997               0.000005112              -0.000202113               0.999999997               0.000003998              -0.000202292               0.999999997              -0.000000854              -0.000212116               0.999999997              -0.000007867              -0.000227788               0.999999997              -0.000016688              -0.000247254               0.999999997              -0.000026716              -0.000269384               0.999999997              -0.000037712              -0.000293438               0.999999997              -0.000049329              -0.000319200               0.999999997              -0.000061443              -0.000346397               0.999999997              -0.000074124              -0.000374953               0.999999997              -0.000087213              -0.000404808               0.999999997              -0.000100694              -0.000435747               0.999999997              -0.000114523              -0.000467530               0.999999997              -0.000128507              -0.000499850               0.999999997              -0.000142403              -0.000532472               0.999999997              -0.000156301              -0.000565185               0.999999997              -0.000003988              -0.000243538               0.999999997               0.000007459              -0.000224581               0.999999997               0.000007667              -0.000222553               0.999999997               0.000003749              -0.000229831               0.999999997              -0.000002383              -0.000242807               0.999999997              -0.000010200              -0.000259773               0.999999997              -0.000019136              -0.000279545               0.999999997              -0.000028950              -0.000301364               0.999999997              -0.000039377              -0.000324809               0.999999997              -0.000050245              -0.000349695               0.999999997              -0.000061452              -0.000375964               0.999999997              -0.000072903              -0.000403552               0.999999997              -0.000084595              -0.000432307               0.999999997              -0.000096539              -0.000462004               0.999999997              -0.000108713              -0.000492415               0.999999997              -0.000120872              -0.000523248               0.999999997              -0.000133006              -0.000554441               0.999999997              -0.000004003              -0.000262443               0.999999997               0.000008818              -0.000246068               0.999999997               0.000010386              -0.000243048               0.999999997               0.000007531              -0.000248273               0.999999997               0.000002423              -0.000258946               0.999999997              -0.000004217              -0.000273566               0.999999997              -0.000011956              -0.000291110               0.999999997              -0.000020501              -0.000310793               0.999999997              -0.000029753              -0.000332172               0.999999997              -0.000039462              -0.000354876               0.999999997              -0.000049232              -0.000378958               0.999999997              -0.000059061              -0.000404362               0.999999997              -0.000068992              -0.000430961               0.999999997              -0.000079079              -0.000458482               0.999999997              -0.000089278              -0.000486789               0.999999997              -0.000099439              -0.000515726               0.999999997              -0.000109638              -0.000545171               0.999999997              -0.000003811              -0.000278941               0.999999997               0.000009216              -0.000266016               0.999999997               0.000011867              -0.000262968               0.999999997               0.000010087              -0.000266858               0.999999997               0.000006193              -0.000275723               0.999999997               0.000000756              -0.000288388               0.999999997              -0.000005617              -0.000303986               0.999999997              -0.000012880              -0.000321749               0.999999997              -0.000020833              -0.000341235               0.999999997              -0.000029223              -0.000362201               0.999999997              -0.000037571              -0.000384383               0.999999997              -0.000045740              -0.000407815               0.999999997              -0.000053934              -0.000432398               0.999999997              -0.000062092              -0.000457926               0.999999997              -0.000070288              -0.000484223               0.999999997              -0.000078208              -0.000511107               0.999999997              -0.000085882              -0.000538660               0.999999997              -0.000003386              -0.000292765               0.999999997               0.000008677              -0.000283690               0.999999997               0.000011934              -0.000281356               0.999999997               0.000011148              -0.000284676               0.999999997               0.000008365              -0.000292268               0.999999997               0.000004289              -0.000303427               0.999999997              -0.000000744              -0.000317379               0.999999997              -0.000006544              -0.000333567               0.999999997              -0.000013076              -0.000351527               0.999999997              -0.000020027              -0.000370991               0.999999997              -0.000026953              -0.000391712               0.999999997              -0.000033534              -0.000413661               0.999999997              -0.000039911              -0.000436688               0.999999997              -0.000046326              -0.000460615               0.999999997              -0.000052450              -0.000485281               0.999999997              -0.000057939              -0.000510566               0.999999997              -0.000062704              -0.000536447               0.999999997              -0.000002753              -0.000303696               0.999999997               0.000007318              -0.000298368               0.999999997               0.000010557              -0.000297218               0.999999997               0.000010477              -0.000300424               0.999999997               0.000008694              -0.000307376               0.999999997               0.000005915              -0.000317438               0.999999997               0.000002232              -0.000330248               0.999999997              -0.000002067              -0.000345171               0.999999997              -0.000007051              -0.000361807               0.999999997              -0.000012491              -0.000380059               0.999999997              -0.000017920              -0.000399704               0.999999997              -0.000022956              -0.000420576               0.999999997              -0.000027694              -0.000442451               0.999999997              -0.000032231              -0.000465305               0.999999997              -0.000036410              -0.000488920               0.999999997              -0.000039797              -0.000513186               0.999999997              -0.000042109              -0.000537982               0.999999997              -0.000001957              -0.000311638               0.999999997               0.000005256              -0.000309314               0.999999997               0.000007870              -0.000309470               0.999999997               0.000008149              -0.000312954               0.999999997               0.000007134              -0.000319600               0.999999997               0.000005426              -0.000329038               0.999999997               0.000003067              -0.000340977               0.999999997               0.000000165              -0.000354947               0.999999997              -0.000003166              -0.000370717               0.999999997              -0.000006788              -0.000388143               0.999999997              -0.000010547              -0.000407083               0.999999997              -0.000014130              -0.000427279               0.999999997              -0.000017169              -0.000448575               0.999999997              -0.000019819              -0.000470892               0.999999997              -0.000022338              -0.000493967               0.999999997              -0.000024257              -0.000517594               0.999999997              -0.000024970              -0.000541718               0.999999997              -0.000001019              -0.000316483               0.999999997               0.000002728              -0.000316137               0.999999997               0.000004203              -0.000317176               0.999999997               0.000004428              -0.000320953               0.999999997               0.000003974              -0.000327550               0.999999997               0.000003170              -0.000336671               0.999999997               0.000002041              -0.000348111               0.999999997               0.000000589              -0.000361608               0.999999997              -0.000001072              -0.000376991               0.999999997              -0.000002812              -0.000393977               0.999999997              -0.000004793              -0.000412430               0.999999997              -0.000006653              -0.000432228               0.999999997              -0.000007968              -0.000453248               0.999999997              -0.000009216              -0.000475271               0.999999997              -0.000010511              -0.000498160               0.999999997              -0.000011427              -0.000521693               0.999999997              -0.000011380              -0.000545645               0.999999997              -0.000000000              -0.000318047               0.999999997              -0.000000000              -0.000318431               0.999999997              -0.000000000              -0.000319831               0.999999997               0.000000000              -0.000323731               0.999999997              -0.000000000              -0.000330361               0.999999997              -0.000000000              -0.000339351               0.999999997              -0.000000000              -0.000350586               0.999999997              -0.000000000              -0.000364026               0.999999997              -0.000000000              -0.000379360               0.999999997              -0.000000000              -0.000396169               0.999999997              -0.000000000              -0.000414416               0.999999997              -0.000000000              -0.000434050               0.999999997               0.000000000              -0.000454910               0.999999997               0.000000000              -0.000476814               0.999999997              -0.000000000              -0.000499674               0.999999997               0.000000000              -0.000523330               0.999999997               0.000000000              -0.000547392               0.999999997               0.000003307              -0.000000000               0.999999997               0.000016027              -0.000000000               0.999999997               0.000022450              -0.000000000               0.999999997               0.000026380              -0.000000000               0.999999997               0.000029573               0.000000000               0.999999997               0.000032744              -0.000000000               0.999999997               0.000036145              -0.000000000               0.999999997               0.000039996               0.000000000               0.999999997               0.000044301               0.000000000               0.999999997               0.000049051               0.000000000               0.999999997               0.000054271               0.000000000               0.999999997               0.000059975               0.000000000               0.999999997               0.000066164               0.000000000               0.999999997               0.000072869               0.000000000               0.999999997               0.000080123               0.000000000               0.999999997               0.000087918               0.000000000               0.999999997               0.000096263               0.000000000               0.999999997               0.000003368              -0.000031099               0.999999997               0.000015605              -0.000027974               0.999999997               0.000021714              -0.000027251               0.999999997               0.000025536              -0.000027974               0.999999997               0.000028680              -0.000029640               0.999999997               0.000031880              -0.000031849               0.999999997               0.000035404              -0.000034450               0.999999997               0.000039338              -0.000037351               0.999999997               0.000043748              -0.000040459               0.999999997               0.000048631              -0.000043800               0.999999997               0.000054015              -0.000047330               0.999999997               0.000059877              -0.000050991               0.999999997               0.000066204              -0.000054748               0.999999997               0.000073004              -0.000058696               0.999999997               0.000080337              -0.000062675               0.999999997               0.000088242              -0.000066722               0.999999997               0.000096710              -0.000070662               0.999999997               0.000003447              -0.000061906               0.999999997               0.000014332              -0.000055543               0.999999997               0.000019665              -0.000054262               0.999999997               0.000023154              -0.000055856               0.999999997               0.000026284              -0.000059183               0.999999997               0.000029596              -0.000063663               0.999999997               0.000033285              -0.000068906               0.999999997               0.000037486              -0.000074711               0.999999997               0.000042269              -0.000080999               0.999999997               0.000047603              -0.000087658               0.999999997               0.000053477              -0.000094805               0.999999997               0.000059800              -0.000102057               0.999999997               0.000066558              -0.000109574               0.999999997               0.000073794              -0.000117449               0.999999997               0.000081551              -0.000125625               0.999999997               0.000089895              -0.000133937               0.999999997               0.000098809              -0.000142321               0.999999997               0.000003517              -0.000092069               0.999999997               0.000012196              -0.000082465               0.999999997               0.000016486              -0.000080827               0.999999997               0.000019608              -0.000083455               0.999999997               0.000022719              -0.000088605               0.999999997               0.000026286              -0.000095413               0.999999997               0.000030434              -0.000103404               0.999999997               0.000035249              -0.000112265               0.999999997               0.000040725              -0.000121800               0.999999997               0.000046744              -0.000131891               0.999999997               0.000053301              -0.000142501               0.999999997               0.000060397              -0.000153457               0.999999997               0.000067994              -0.000164704               0.999999997               0.000076082              -0.000176517               0.999999997               0.000084677              -0.000188848               0.999999997               0.000093789              -0.000201617               0.999999997               0.000103407              -0.000214592               0.999999997               0.000003655              -0.000121234               0.999999997               0.000009359              -0.000108515               0.999999997               0.000012459              -0.000106823               0.999999997               0.000015332              -0.000110707               0.999999997               0.000018677              -0.000117866               0.999999997               0.000022769              -0.000127151               0.999999997               0.000027712              -0.000137923               0.999999997               0.000033429              -0.000149857               0.999999997               0.000039815              -0.000162581               0.999999997               0.000046844              -0.000176017               0.999999997               0.000054462              -0.000190105               0.999999997               0.000062635              -0.000204707               0.999999997               0.000071367              -0.000219663               0.999999997               0.000080603              -0.000235307               0.999999997               0.000090316              -0.000251770               0.999999997               0.000100493              -0.000268775               0.999999997               0.000111044              -0.000286201               0.999999997               0.000003730              -0.000149181               0.999999997               0.000005973              -0.000133574               0.999999997               0.000008014              -0.000132122               0.999999997               0.000010877              -0.000137439               0.999999997               0.000014790              -0.000146664               0.999999997               0.000019743              -0.000158446               0.999999997               0.000025691              -0.000172096               0.999999997               0.000032481              -0.000187042               0.999999997               0.000040068              -0.000203004               0.999999997               0.000048357              -0.000219769               0.999999997               0.000057270              -0.000237229               0.999999997               0.000066777              -0.000255423               0.999999997               0.000076787              -0.000274176               0.999999997               0.000087302              -0.000293643               0.999999997               0.000098238              -0.000314077               0.999999997               0.000109516              -0.000335217               0.999999997               0.000121069              -0.000356779               0.999999997               0.000003722              -0.000175629               0.999999997               0.000002278              -0.000157575               0.999999997               0.000003550              -0.000156584               0.999999997               0.000006781              -0.000163347               0.999999997               0.000011539              -0.000174712               0.999999997               0.000017582              -0.000189064               0.999999997               0.000024757              -0.000205537               0.999999997               0.000032915              -0.000223501               0.999999997               0.000041903              -0.000242637               0.999999997               0.000051591              -0.000262743               0.999999997               0.000061812              -0.000283643               0.999999997               0.000072506              -0.000305545               0.999999997               0.000083716              -0.000328187               0.999999997               0.000095429              -0.000351646               0.999999997               0.000107565              -0.000376054               0.999999997               0.000119979              -0.000401181               0.999999997               0.000132568              -0.000426623               0.999999997               0.000003695              -0.000200235               0.999999997              -0.000001457              -0.000180419               0.999999997              -0.000000572              -0.000180027               0.999999997               0.000003375              -0.000188313               0.999999997               0.000009225              -0.000201810               0.999999997               0.000016557              -0.000218725               0.999999997               0.000025153              -0.000238029               0.999999997               0.000034781              -0.000258934               0.999999997               0.000045135              -0.000281330               0.999999997               0.000056091              -0.000304878               0.999999997               0.000067500              -0.000329523               0.999999997               0.000079483              -0.000355228               0.999999997               0.000091931              -0.000381920               0.999999997               0.000104859              -0.000409505               0.999999997               0.000118078              -0.000437944               0.999999997               0.000131441              -0.000466832               0.999999997               0.000144828              -0.000495935               0.999999997               0.000003697              -0.000222621               0.999999997              -0.000005112              -0.000202113               0.999999997              -0.000003998              -0.000202292               0.999999997               0.000000854              -0.000212116               0.999999997               0.000007867              -0.000227788               0.999999997               0.000016688              -0.000247254               0.999999997               0.000026716              -0.000269384               0.999999997               0.000037712              -0.000293438               0.999999997               0.000049329              -0.000319200               0.999999997               0.000061443              -0.000346397               0.999999997               0.000074124              -0.000374953               0.999999997               0.000087213              -0.000404808               0.999999997               0.000100694              -0.000435747               0.999999997               0.000114523              -0.000467530               0.999999997               0.000128507              -0.000499850               0.999999997               0.000142403              -0.000532472               0.999999997               0.000156301              -0.000565185               0.999999997               0.000003988              -0.000243538               0.999999997              -0.000007459              -0.000224581               0.999999997              -0.000007667              -0.000222553               0.999999997              -0.000003749              -0.000229831               0.999999997               0.000002383              -0.000242807               0.999999997               0.000010200              -0.000259773               0.999999997               0.000019136              -0.000279545               0.999999997               0.000028950              -0.000301364               0.999999997               0.000039377              -0.000324809               0.999999997               0.000050245              -0.000349695               0.999999997               0.000061452              -0.000375964               0.999999997               0.000072903              -0.000403552               0.999999997               0.000084595              -0.000432307               0.999999997               0.000096539              -0.000462004               0.999999997               0.000108713              -0.000492415               0.999999997               0.000120872              -0.000523248               0.999999997               0.000133006              -0.000554441               0.999999997               0.000004003              -0.000262443               0.999999997              -0.000008818              -0.000246068               0.999999997              -0.000010386              -0.000243048               0.999999997              -0.000007531              -0.000248273               0.999999997              -0.000002423              -0.000258946               0.999999997               0.000004217              -0.000273566               0.999999997               0.000011956              -0.000291110               0.999999997               0.000020501              -0.000310793               0.999999997               0.000029753              -0.000332172               0.999999997               0.000039462              -0.000354876               0.999999997               0.000049232              -0.000378958               0.999999997               0.000059061              -0.000404362               0.999999997               0.000068992              -0.000430961               0.999999997               0.000079079              -0.000458482               0.999999997               0.000089278              -0.000486789               0.999999997               0.000099439              -0.000515726               0.999999997               0.000109638              -0.000545171               0.999999997               0.000003811              -0.000278941               0.999999997              -0.000009216              -0.000266016               0.999999997              -0.000011867              -0.000262968               0.999999997              -0.000010087              -0.000266858               0.999999997              -0.000006193              -0.000275723               0.999999997              -0.000000756              -0.000288388               0.999999997               0.000005617              -0.000303986               0.999999997               0.000012880              -0.000321749               0.999999997               0.000020833              -0.000341235               0.999999997               0.000029223              -0.000362201               0.999999997               0.000037571              -0.000384383               0.999999997               0.000045740              -0.000407815               0.999999997               0.000053934              -0.000432398               0.999999997               0.000062092              -0.000457926               0.999999997               0.000070288              -0.000484223               0.999999997               0.000078208              -0.000511107               0.999999997               0.000085882              -0.000538660               0.999999997               0.000003386              -0.000292765               0.999999997              -0.000008677              -0.000283690               0.999999997              -0.000011934              -0.000281356               0.999999997              -0.000011148              -0.000284676               0.999999997              -0.000008365              -0.000292268               0.999999997              -0.000004289              -0.000303427               0.999999997               0.000000744              -0.000317379               0.999999997               0.000006544              -0.000333567               0.999999997               0.000013076              -0.000351527               0.999999997               0.000020027              -0.000370991               0.999999997               0.000026953              -0.000391712               0.999999997               0.000033534              -0.000413661               0.999999997               0.000039911              -0.000436688               0.999999997               0.000046326              -0.000460615               0.999999997               0.000052450              -0.000485281               0.999999997               0.000057939              -0.000510566               0.999999997               0.000062704              -0.000536447               0.999999997               0.000002753              -0.000303696               0.999999997              -0.000007318              -0.000298368               0.999999997              -0.000010557              -0.000297218               0.999999997              -0.000010477              -0.000300424               0.999999997              -0.000008694              -0.000307376               0.999999997              -0.000005915              -0.000317438               0.999999997              -0.000002232              -0.000330248               0.999999997               0.000002067              -0.000345171               0.999999997               0.000007051              -0.000361807               0.999999997               0.000012491              -0.000380059               0.999999997               0.000017920              -0.000399704               0.999999997               0.000022956              -0.000420576               0.999999997               0.000027694              -0.000442451               0.999999997               0.000032231              -0.000465305               0.999999997               0.000036410              -0.000488920               0.999999997               0.000039797              -0.000513186               0.999999997               0.000042109              -0.000537982               0.999999997               0.000001957              -0.000311638               0.999999997              -0.000005256              -0.000309314               0.999999997              -0.000007870              -0.000309470               0.999999997              -0.000008149              -0.000312954               0.999999997              -0.000007134              -0.000319600               0.999999997              -0.000005426              -0.000329038               0.999999997              -0.000003067              -0.000340977               0.999999997              -0.000000165              -0.000354947               0.999999997               0.000003166              -0.000370717               0.999999997               0.000006788              -0.000388143               0.999999997               0.000010547              -0.000407083               0.999999997               0.000014130              -0.000427279               0.999999997               0.000017169              -0.000448575               0.999999997               0.000019819              -0.000470892               0.999999997               0.000022338              -0.000493967               0.999999997               0.000024257              -0.000517594               0.999999997               0.000024970              -0.000541718               0.999999997               0.000001019              -0.000316483               0.999999997              -0.000002728              -0.000316137               0.999999997              -0.000004203              -0.000317176               0.999999997              -0.000004428              -0.000320953               0.999999997              -0.000003974              -0.000327550               0.999999997              -0.000003170              -0.000336671               0.999999997              -0.000002041              -0.000348111               0.999999997              -0.000000589              -0.000361608               0.999999997               0.000001072              -0.000376991               0.999999997               0.000002812              -0.000393977               0.999999997               0.000004793              -0.000412430               0.999999997               0.000006653              -0.000432228               0.999999997               0.000007968              -0.000453248               0.999999997               0.000009216              -0.000475271               0.999999997               0.000010511              -0.000498160               0.999999997               0.000011427              -0.000521693               0.999999997               0.000011380              -0.000545645               0.999999997              -0.000000000              -0.000318047               0.999999997              -0.000000000              -0.000318431               0.999999997              -0.000000000              -0.000319831               0.999999997               0.000000000              -0.000323731               0.999999997              -0.000000000              -0.000330361               0.999999997              -0.000000000              -0.000339351               0.999999997              -0.000000000              -0.000350586               0.999999997              -0.000000000              -0.000364026               0.999999997              -0.000000000              -0.000379360               0.999999997              -0.000000000              -0.000396169               0.999999997              -0.000000000              -0.000414416               0.999999997              -0.000000000              -0.000434050               0.999999997               0.000000000              -0.000454910               0.999999997               0.000000000              -0.000476814               0.999999997              -0.000000000              -0.000499674               0.999999997               0.000000000              -0.000523330               0.999999997               0.000000000              -0.000547392               0.999999997               0.000003307              -0.000000000               0.999999997               0.000016027              -0.000000000               0.999999997               0.000022450              -0.000000000               0.999999997               0.000026380              -0.000000000               0.999999997               0.000029573               0.000000000               0.999999997               0.000032744              -0.000000000               0.999999997               0.000036145              -0.000000000               0.999999997               0.000039996               0.000000000               0.999999997               0.000044301               0.000000000               0.999999997               0.000049051               0.000000000               0.999999997               0.000054271               0.000000000               0.999999997               0.000059975               0.000000000               0.999999997               0.000066164               0.000000000               0.999999997               0.000072869               0.000000000               0.999999997               0.000080123               0.000000000               0.999999997               0.000087918               0.000000000               0.999999997               0.000096263               0.000000000               0.999999997               0.000003368               0.000031099               0.999999997               0.000015605               0.000027974               0.999999997               0.000021714               0.000027251               0.999999997               0.000025536               0.000027974               0.999999997               0.000028680               0.000029640               0.999999997               0.000031880               0.000031849               0.999999997               0.000035404               0.000034450               0.999999997               0.000039338               0.000037351               0.999999997               0.000043748               0.000040459               0.999999997               0.000048631               0.000043800               0.999999997               0.000054015               0.000047330               0.999999997               0.000059877               0.000050991               0.999999997               0.000066204               0.000054748               0.999999997               0.000073004               0.000058696               0.999999997               0.000080337               0.000062675               0.999999997               0.000088242               0.000066722               0.999999997               0.000096710               0.000070662               0.999999997               0.000003447               0.000061906               0.999999997               0.000014332               0.000055543               0.999999997               0.000019665               0.000054262               0.999999997               0.000023154               0.000055856               0.999999997               0.000026284               0.000059183               0.999999997               0.000029596               0.000063663               0.999999997               0.000033285               0.000068906               0.999999997               0.000037486               0.000074711               0.999999997               0.000042269               0.000080999               0.999999997               0.000047603               0.000087658               0.999999997               0.000053477               0.000094805               0.999999997               0.000059800               0.000102057               0.999999997               0.000066558               0.000109574               0.999999997               0.000073794               0.000117449               0.999999997               0.000081551               0.000125625               0.999999997               0.000089895               0.000133937               0.999999997               0.000098809               0.000142321               0.999999997               0.000003517               0.000092069               0.999999997               0.000012196               0.000082465               0.999999997               0.000016486               0.000080827               0.999999997               0.000019608               0.000083455               0.999999997               0.000022719               0.000088605               0.999999997               0.000026286               0.000095413               0.999999997               0.000030434               0.000103404               0.999999997               0.000035249               0.000112265               0.999999997               0.000040725               0.000121800               0.999999997               0.000046744               0.000131891               0.999999997               0.000053301               0.000142501               0.999999997               0.000060397               0.000153457               0.999999997               0.000067994               0.000164704               0.999999997               0.000076082               0.000176517               0.999999997               0.000084677               0.000188848               0.999999997               0.000093789               0.000201617               0.999999997               0.000103407               0.000214592               0.999999997               0.000003655               0.000121234               0.999999997               0.000009359               0.000108515               0.999999997               0.000012459               0.000106823               0.999999997               0.000015332               0.000110707               0.999999997               0.000018677               0.000117866               0.999999997               0.000022769               0.000127151               0.999999997               0.000027712               0.000137923               0.999999997               0.000033429               0.000149857               0.999999997               0.000039815               0.000162581               0.999999997               0.000046844               0.000176017               0.999999997               0.000054462               0.000190105               0.999999997               0.000062635               0.000204707               0.999999997               0.000071367               0.000219663               0.999999997               0.000080603               0.000235307               0.999999997               0.000090316               0.000251770               0.999999997               0.000100493               0.000268775               0.999999997               0.000111044               0.000286201               0.999999997               0.000003730               0.000149181               0.999999997               0.000005973               0.000133574               0.999999997               0.000008014               0.000132122               0.999999997               0.000010877               0.000137439               0.999999997               0.000014790               0.000146664               0.999999997               0.000019743               0.000158446               0.999999997               0.000025691               0.000172096               0.999999997               0.000032481               0.000187042               0.999999997               0.000040068               0.000203004               0.999999997               0.000048357               0.000219769               0.999999997               0.000057270               0.000237229               0.999999997               0.000066777               0.000255423               0.999999997               0.000076787               0.000274176               0.999999997               0.000087302               0.000293643               0.999999997               0.000098238               0.000314077               0.999999997               0.000109516               0.000335217               0.999999997               0.000121069               0.000356779               0.999999997               0.000003722               0.000175629               0.999999997               0.000002278               0.000157575               0.999999997               0.000003550               0.000156584               0.999999997               0.000006781               0.000163347               0.999999997               0.000011539               0.000174712               0.999999997               0.000017582               0.000189064               0.999999997               0.000024757               0.000205537               0.999999997               0.000032915               0.000223501               0.999999997               0.000041903               0.000242637               0.999999997               0.000051591               0.000262743               0.999999997               0.000061812               0.000283643               0.999999997               0.000072506               0.000305545               0.999999997               0.000083716               0.000328187               0.999999997               0.000095429               0.000351646               0.999999997               0.000107565               0.000376054               0.999999997               0.000119979               0.000401181               0.999999997               0.000132568               0.000426623               0.999999997               0.000003695               0.000200235               0.999999997              -0.000001457               0.000180419               0.999999997              -0.000000572               0.000180027               0.999999997               0.000003375               0.000188313               0.999999997               0.000009225               0.000201810               0.999999997               0.000016557               0.000218725               0.999999997               0.000025153               0.000238029               0.999999997               0.000034781               0.000258934               0.999999997               0.000045135               0.000281330               0.999999997               0.000056091               0.000304878               0.999999997               0.000067500               0.000329523               0.999999997               0.000079483               0.000355228               0.999999997               0.000091931               0.000381920               0.999999997               0.000104859               0.000409505               0.999999997               0.000118078               0.000437944               0.999999997               0.000131441               0.000466832               0.999999997               0.000144828               0.000495935               0.999999997               0.000003697               0.000222621               0.999999997              -0.000005112               0.000202113               0.999999997              -0.000003998               0.000202292               0.999999997               0.000000854               0.000212116               0.999999997               0.000007867               0.000227788               0.999999997               0.000016688               0.000247254               0.999999997               0.000026716               0.000269384               0.999999997               0.000037712               0.000293438               0.999999997               0.000049329               0.000319200               0.999999997               0.000061443               0.000346397               0.999999997               0.000074124               0.000374953               0.999999997               0.000087213               0.000404808               0.999999997               0.000100694               0.000435747               0.999999997               0.000114523               0.000467530               0.999999997               0.000128507               0.000499850               0.999999997               0.000142403               0.000532472               0.999999997               0.000156301               0.000565185               0.999999997               0.000003988               0.000243538               0.999999997              -0.000007459               0.000224581               0.999999997              -0.000007667               0.000222553               0.999999997              -0.000003749               0.000229831               0.999999997               0.000002383               0.000242807               0.999999997               0.000010200               0.000259773               0.999999997               0.000019136               0.000279545               0.999999997               0.000028950               0.000301364               0.999999997               0.000039377               0.000324809               0.999999997               0.000050245               0.000349695               0.999999997               0.000061452               0.000375964               0.999999997               0.000072903               0.000403552               0.999999997               0.000084595               0.000432307               0.999999997               0.000096539               0.000462004               0.999999997               0.000108713               0.000492415               0.999999997               0.000120872               0.000523248               0.999999997               0.000133006               0.000554441               0.999999997               0.000004003               0.000262443               0.999999997              -0.000008818               0.000246068               0.999999997              -0.000010386               0.000243048               0.999999997              -0.000007531               0.000248273               0.999999997              -0.000002423               0.000258946               0.999999997               0.000004217               0.000273566               0.999999997               0.000011956               0.000291110               0.999999997               0.000020501               0.000310793               0.999999997               0.000029753               0.000332172               0.999999997               0.000039462               0.000354876               0.999999997               0.000049232               0.000378958               0.999999997               0.000059061               0.000404362               0.999999997               0.000068992               0.000430961               0.999999997               0.000079079               0.000458482               0.999999997               0.000089278               0.000486789               0.999999997               0.000099439               0.000515726               0.999999997               0.000109638               0.000545171               0.999999997               0.000003811               0.000278941               0.999999997              -0.000009216               0.000266016               0.999999997              -0.000011867               0.000262968               0.999999997              -0.000010087               0.000266858               0.999999997              -0.000006193               0.000275723               0.999999997              -0.000000756               0.000288388               0.999999997               0.000005617               0.000303986               0.999999997               0.000012880               0.000321749               0.999999997               0.000020833               0.000341235               0.999999997               0.000029223               0.000362201               0.999999997               0.000037571               0.000384383               0.999999997               0.000045740               0.000407815               0.999999997               0.000053934               0.000432398               0.999999997               0.000062092               0.000457926               0.999999997               0.000070288               0.000484223               0.999999997               0.000078208               0.000511107               0.999999997               0.000085882               0.000538660               0.999999997               0.000003386               0.000292765               0.999999997              -0.000008677               0.000283690               0.999999997              -0.000011934               0.000281356               0.999999997              -0.000011148               0.000284676               0.999999997              -0.000008365               0.000292268               0.999999997              -0.000004289               0.000303427               0.999999997               0.000000744               0.000317379               0.999999997               0.000006544               0.000333567               0.999999997               0.000013076               0.000351527               0.999999997               0.000020027               0.000370991               0.999999997               0.000026953               0.000391712               0.999999997               0.000033534               0.000413661               0.999999997               0.000039911               0.000436688               0.999999997               0.000046326               0.000460615               0.999999997               0.000052450               0.000485281               0.999999997               0.000057939               0.000510566               0.999999997               0.000062704               0.000536447               0.999999997               0.000002753               0.000303696               0.999999997              -0.000007318               0.000298368               0.999999997              -0.000010557               0.000297218               0.999999997              -0.000010477               0.000300424               0.999999997              -0.000008694               0.000307376               0.999999997              -0.000005915               0.000317438               0.999999997              -0.000002232               0.000330248               0.999999997               0.000002067               0.000345171               0.999999997               0.000007051               0.000361807               0.999999997               0.000012491               0.000380059               0.999999997               0.000017920               0.000399704               0.999999997               0.000022956               0.000420576               0.999999997               0.000027694               0.000442451               0.999999997               0.000032231               0.000465305               0.999999997               0.000036410               0.000488920               0.999999997               0.000039797               0.000513186               0.999999997               0.000042109               0.000537982               0.999999997               0.000001957               0.000311638               0.999999997              -0.000005256               0.000309314               0.999999997              -0.000007870               0.000309470               0.999999997              -0.000008149               0.000312954               0.999999997              -0.000007134               0.000319600               0.999999997              -0.000005426               0.000329038               0.999999997              -0.000003067               0.000340977               0.999999997              -0.000000165               0.000354947               0.999999997               0.000003166               0.000370717               0.999999997               0.000006788               0.000388143               0.999999997               0.000010547               0.000407083               0.999999997               0.000014130               0.000427279               0.999999997               0.000017169               0.000448575               0.999999997               0.000019819               0.000470892               0.999999997               0.000022338               0.000493967               0.999999997               0.000024257               0.000517594               0.999999997               0.000024970               0.000541718               0.999999997               0.000001019               0.000316483               0.999999997              -0.000002728               0.000316137               0.999999997              -0.000004203               0.000317176               0.999999997              -0.000004428               0.000320953               0.999999997              -0.000003974               0.000327550               0.999999997              -0.000003170               0.000336671               0.999999997              -0.000002041               0.000348111               0.999999997              -0.000000589               0.000361608               0.999999997               0.000001072               0.000376991               0.999999997               0.000002812               0.000393977               0.999999997               0.000004793               0.000412430               0.999999997               0.000006653               0.000432228               0.999999997               0.000007968               0.000453248               0.999999997               0.000009216               0.000475271               0.999999997               0.000010511               0.000498160               0.999999997               0.000011427               0.000521693               0.999999997               0.000011380               0.000545645               0.999999997               0.000000000               0.000318047               0.999999997               0.000000000               0.000318431               0.999999997              -0.000000000               0.000319831               0.999999997               0.000000000               0.000323731               0.999999997              -0.000000000               0.000330361               0.999999997              -0.000000000               0.000339351               0.999999997              -0.000000000               0.000350586               0.999999997              -0.000000000               0.000364026               0.999999997              -0.000000000               0.000379360               0.999999997               0.000000000               0.000396169               0.999999997               0.000000000               0.000414416               0.999999997              -0.000000000               0.000434050               0.999999997              -0.000000000               0.000454910               0.999999997              -0.000000000               0.000476814               0.999999997               0.000000000               0.000499674               0.999999997               0.000000000               0.000523330               0.999999997               0.000000000               0.000547392               0.999999997 </DataArray>
<DataArray type="Float64"                                    Name="defo"                                                      NumberOfComponents=" 3" format="ascii">
             -0.000003307               0.000000000               0.999999997              -0.000016027               0.000000000               0.999999997              -0.000022450              -0.000000000               0.999999997              -0.000026380              -0.000000000               0.999999997              -0.000029573              -0.000000000               0.999999997              -0.000032744               0.000000000               0.999999997              -0.000036145              -0.000000000               0.999999997              -0.000039996               0.000000000               0.999999997              -0.000044301               0.000000000               0.999999997              -0.000049051              -0.000000000               0.999999997              -0.000054271              -0.000000000               0.999999997              -0.000059975              -0.000000000               0.999999997              -0.000066164               0.000000000               0.999999997              -0.000072869              -0.000000000               0.999999997              -0.000080123              -0.000000000               0.999999997              -0.000087918              -0.000000000               0.999999997              -0.000096263               0.000000000               0.999999997              -0.000003368               0.000031099               0.999999997              -0.000015605               0.000027974               0.999999997              -0.000021714               0.000027251               0.999999997              -0.000025536               0.000027974               0.999999997              -0.000028680               0.000029640               0.999999997              -0.000031880               0.000031849               0.999999997              -0.000035404               0.000034450               0.999999997              -0.000039338               0.000037351               0.999999997              -0.000043748               0.000040459               0.999999997              -0.000048631               0.000043800               0.999999997              -0.000054015               0.000047330               0.999999997              -0.000059877               0.000050991               0.999999997              -0.000066204               0.000054748               0.999999997              -0.000073004               0.000058696               0.999999997              -0.000080337               0.000062675               0.999999997              -0.000088242               0.000066722               0.999999997              -0.000096710               0.000070662               0.999999997              -0.000003447               0.000061906               0.999999997              -0.000014332               0.000055543               0.999999997              -0.000019665               0.000054262               0.999999997              -0.000023154               0.000055856               0.999999997              -0.000026284               0.000059183               0.999999997              -0.000029596               0.000063663               0.999999997              -0.000033285               0.000068906               0.999999997              -0.000037486               0.000074711               0.999999997              -0.000042269               0.000080999               0.999999997              -0.000047603               0.000087658               0.999999997              -0.000053477               0.000094805               0.999999997              -0.000059800               0.000102057               0.999999997              -0.000066558               0.000109574               0.999999997              -0.000073794               0.000117449               0.999999997              -0.000081551               0.000125625               0.999999997              -0.000089895               0.000133937               0.999999997              -0.000098809               0.000142321               0.999999997              -0.000003517               0.000092069               0.999999997              -0.000012196               0.000082465               0.999999997              -0.000016486               0.000080827               0.999999997              -0.000019608               0.000083455               0.999999997              -0.000022719               0.000088605               0.999999997              -0.000026286               0.000095413               0.999999997              -0.000030434               0.000103404               0.999999997              -0.000035249               0.000112265               0.999999997              -0.000040725               0.000121800               0.999999997              -0.000046744               0.000131891               0.999999997              -0.000053301               0.000142501               0.999999997              -0.000060397               0.000153457               0.999999997              -0.000067994               0.000164704               0.999999997              -0.000076082               0.000176517               0.999999997              -0.000084677               0.000188848               0.999999997              -0.000093789               0.000201617               0.999999997              -0.000103407               0.000214592               0.999999997              -0.000003655               0.000121234               0.999999997              -0.000009359               0.000108515               0.999999997              -0.000012459               0.000106823               0.999999997              -0.000015332               0.000110707               0.999999997              -0.000018677               0.000117866               0.999999997              -0.000022769               0.000127151               0.999999997              -0.000027712               0.000137923               0.999999997              -0.000033429               0.000149857               0.999999997              -0.000039815               0.000162581               0.999999997              -0.000046844               0.000176017               0.999999997              -0.000054462               0.000190105               0.999999997              -0.000062635               0.000204707               0.999999997              -0.000071367               0.000219663               0.999999997              -0.000080603               0.000235307               0.999999997              -0.000090316               0.000251770               0.999999997              -0.000100493               0.000268775               0.999999997              -0.000111044               0.000286201               0.999999997              -0.000003730               0.000149181               0.999999997              -0.000005973               0.000133574               0.999999997              -0.000008014               0.000132122               0.999999997              -0.000010877               0.000137439               0.999999997              -0.000014790               0.000146664               0.999999997              -0.000019743               0.000158446               0.999999997              -0.000025691               0.000172096               0.999999997              -0.000032481               0.000187042               0.999999997              -0.000040068               0.000203004               0.999999997              -0.000048357               0.000219769               0.999999997              -0.000057270               0.000237229               0.999999997              -0.000066777               0.000255423               0.999999997              -0.000076787               0.000274176               0.999999997              -0.000087302               0.000293643               0.999999997              -0.000098238               0.000314077               0.999999997              -0.000109516               0.000335217               0.999999997              -0.000121069               0.000356779               0.999999997              -0.000003722               0.000175629               0.999999997              -0.000002278               0.000157575               0.999999997              -0.000003550               0.000156584               0.999999997              -0.000006781               0.000163347               0.999999997              -0.000011539               0.000174712               0.999999997              -0.000017582               0.000189064               0.999999997              -0.000024757               0.000205537               0.999999997              -0.000032915               0.000223501               0.999999997              -0.000041903               0.000242637               0.999999997              -0.000051591               0.000262743               0.999999997              -0.000061812               0.000283643               0.999999997              -0.000072506               0.000305545               0.999999997              -0.000083716               0.000328187               0.999999997              -0.000095429               0.000351646               0.999999997              -0.000107565               0.000376054               0.999999997              -0.000119979               0.000401181               0.999999997              -0.000132568               0.000426623               0.999999997              -0.000003695               0.000200235               0.999999997               0.000001457               0.000180419               0.999999997               0.000000572               0.000180027               0.999999997              -0.000003375               0.000188313               0.999999997              -0.000009225               0.000201810               0.999999997              -0.000016557               0.000218725               0.999999997              -0.000025153               0.000238029               0.999999997              -0.000034781               0.000258934               0.999999997              -0.000045135               0.000281330               0.999999997              -0.000056091               0.000304878               0.999999997              -0.000067500               0.000329523               0.999999997              -0.000079483               0.000355228               0.999999997              -0.000091931               0.000381920               0.999999997              -0.000104859               0.000409505               0.999999997              -0.000118078               0.000437944               0.999999997              -0.000131441               0.000466832               0.999999997              -0.000144828               0.000495935               0.999999997              -0.000003697               0.000222621               0.999999997               0.000005112               0.000202113               0.999999997               0.000003998               0.000202292               0.999999997              -0.000000854               0.000212116               0.999999997              -0.000007867               0.000227788               0.999999997              -0.000016688               0.000247254               0.999999997              -0.000026716               0.000269384               0.999999997              -0.000037712               0.000293438               0.999999997              -0.000049329               0.000319200               0.999999997              -0.000061443               0.000346397               0.999999997              -0.000074124               0.000374953               0.999999997              -0.000087213               0.000404808               0.999999997              -0.000100694               0.000435747               0.999999997              -0.000114523               0.000467530               0.999999997              -0.000128507               0.000499850               0.999999997              -0.000142403               0.000532472               0.999999997              -0.000156301               0.000565185               0.999999997              -0.000003988               0.000243538               0.999999997               0.000007459               0.000224581               0.999999997               0.000007667               0.000222553               0.999999997               0.000003749               0.000229831               0.999999997              -0.000002383               0.000242807               0.999999997              -0.000010200               0.000259773               0.999999997              -0.000019136               0.000279545               0.999999997              -0.000028950               0.000301364               0.999999997              -0.000039377               0.000324809               0.999999997              -0.000050245               0.000349695               0.999999997              -0.000061452               0.000375964               0.999999997              -0.000072903               0.000403552               0.999999997              -0.000084595               0.000432307               0.999999997              -0.000096539               0.000462004               0.999999997              -0.000108713               0.000492415               0.999999997              -0.000120872               0.000523248               0.999999997              -0.000133006               0.000554441               0.999999997              -0.000004003               0.000262443               0.999999997               0.000008818               0.000246068               0.999999997               0.000010386               0.000243048               0.999999997               0.000007531               0.000248273               0.999999997               0.000002423               0.000258946               0.999999997              -0.000004217               0.000273566               0.999999997              -0.000011956               0.000291110               0.999999997              -0.000020501               0.000310793               0.999999997              -0.000029753               0.000332172               0.999999997              -0.000039462               0.000354876               0.999999997              -0.000049232               0.000378958               0.999999997              -0.000059061               0.000404362               0.999999997              -0.000068992               0.000430961               0.999999997              -0.000079079               0.000458482               0.999999997              -0.000089278               0.000486789               0.999999997              -0.000099439               0.000515726               0.999999997              -0.000109638               0.000545171               0.999999997              -0.000003811               0.000278941               0.999999997               0.000009216               0.000266016               0.999999997               0.000011867               0.000262968               0.999999997               0.000010087               0.000266858               0.999999997               0.000006193               0.000275723               0.999999997               0.000000756               0.000288388               0.999999997              -0.000005617               0.000303986               0.999999997              -0.000012880               0.000321749               0.999999997              -0.000020833               0.000341235               0.999999997              -0.000029223               0.000362201               0.999999997              -0.000037571               0.000384383               0.999999997              -0.000045740               0.000407815               0.999999997              -0.000053934               0.000432398               0.999999997              -0.000062092               0.000457926               0.999999997              -0.000070288               0.000484223               0.999999997              -0.000078208               0.000511107               0.999999997              -0.000085882               0.000538660               0.999999997              -0.000003386               0.000292765               0.999999997               0.000008677               0.000283690               0.999999997               0.000011934               0.000281356               0.999999997               0.000011148               0.000284676               0.999999997               0.000008365               0.000292268               0.999999997               0.000004289               0.000303427               0.999999997              -0.000000744               0.000317379               0.999999997              -0.000006544               0.000333567               0.999999997              -0.000013076               0.000351527               0.999999997              -0.000020027               0.000370991               0.999999997              -0.000026953               0.000391712               0.999999997              -0.000033534               0.000413661               0.999999997              -0.000039911               0.000436688               0.999999997              -0.000046326               0.000460615               0.999999997              -0.000052450               0.000485281               0.999999997              -0.000057939               0.000510566               0.999999997              -0.000062704               0.000536447               0.999999997              -0.000002753               0.000303696               0.999999997               0.000007318               0.000298368               0.999999997               0.000010557               0.000297218               0.999999997               0.000010477               0.000300424               0.999999997               0.000008694               0.000307376               0.999999997               0.000005915               0.000317438               0.999999997               0.000002232               0.000330248               0.999999997              -0.000002067               0.000345171               0.999999997              -0.000007051               0.000361807               0.999999997              -0.000012491               0.000380059               0.999999997              -0.000017920               0.000399704               0.999999997              -0.000022956               0.000420576               0.999999997              -0.000027694               0.000442451               0.999999997              -0.000032231               0.000465305               0.999999997              -0.000036410               0.000488920               0.999999997              -0.000039797               0.000513186               0.999999997              -0.000042109               0.000537982               0.999999997              -0.000001957               0.000311638               0.999999997               0.000005256               0.000309314               0.999999997               0.000007870               0.000309470               0.999999997               0.000008149               0.000312954               0.999999997               0.000007134               0.000319600               0.999999997               0.000005426               0.000329038               0.999999997               0.000003067               0.000340977               0.999999997               0.000000165               0.000354947               0.999999997              -0.000003166               0.000370717               0.999999997              -0.000006788               0.000388143               0.999999997              -0.000010547               0.000407083               0.999999997              -0.000014130               0.000427279               0.999999997              -0.000017169               0.000448575               0.999999997              -0.000019819               0.000470892               0.999999997              -0.000022338               0.000493967               0.999999997              -0.000024257               0.000517594               0.999999997              -0.000024970               0.000541718               0.999999997              -0.000001019               0.000316483               0.999999997               0.000002728               0.000316137               0.999999997               0.000004203               0.000317176               0.999999997               0.000004428               0.000320953               0.999999997               0.000003974               0.000327550               0.999999997               0.000003170               0.000336671               0.999999997               0.000002041               0.000348111               0.999999997               0.000000589               0.000361608               0.999999997              -0.000001072               0.000376991               0.999999997              -0.000002812               0.000393977               0.999999997              -0.000004793               0.000412430               0.999999997              -0.000006653               0.000432228               0.999999997              -0.000007968               0.000453248               0.999999997              -0.000009216               0.000475271               0.999999997              -0.000010511               0.000498160               0.999999997              -0.000011427               0.000521693               0.999999997              -0.000011380               0.000545645               0.999999997               0.000000000               0.000318047               0.999999997               0.000000000               0.000318431               0.999999997              -0.000000000               0.000319831               0.999999997               0.000000000               0.000323731               0.999999997              -0.000000000               0.000330361               0.999999997              -0.000000000               0.000339351               0.999999997              -0.000000000               0.000350586               0.999999997              -0.000000000               0.000364026               0.999999997              -0.000000000               0.000379360               0.999999997               0.000000000               0.000396169               0.999999997               0.000000000               0.000414416               0.999999997              -0.000000000               0.000434050               0.999999997              -0.000000000               0.000454910               0.999999997              -0.000000000               0.000476814               0.999999997               0.000000000               0.000499674               0.999999997               0.000000000               0.000523330               0.999999997               0.000000000               0.000547392               0.999999997              -0.000003307               0.000000000               0.999999997              -0.000016027               0.000000000               0.999999997              -0.000022450              -0.000000000               0.999999997              -0.000026380              -0.000000000               0.999999997              -0.000029573              -0.000000000               0.999999997              -0.000032744               0.000000000               0.999999997              -0.000036145              -0.000000000               0.999999997              -0.000039996               0.000000000               0.999999997              -0.000044301               0.000000000               0.999999997              -0.000049051              -0.000000000               0.999999997              -0.000054271              -0.000000000               0.999999997              -0.000059975              -0.000000000               0.999999997              -0.000066164               0.000000000               0.999999997              -0.000072869              -0.000000000               0.999999997              -0.000080123              -0.000000000               0.999999997              -0.000087918              -0.000000000               0.999999997              -0.000096263               0.000000000               0.999999997              -0.000003368              -0.000031099               0.999999997              -0.000015605              -0.000027974               0.999999997              -0.000021714              -0.000027251               0.999999997              -0.000025536              -0.000027974               0.999999997              -0.000028680              -0.000029640               0.999999997              -0.000031880              -0.000031849               0.999999997              -0.000035404              -0.000034450               0.999999997              -0.000039338              -0.000037351               0.999999997              -0.000043748              -0.000040459               0.999999997              -0.000048631              -0.000043800               0.999999997              -0.000054015              -0.000047330               0.999999997              -0.000059877              -0.000050991               0.999999997              -0.000066204              -0.000054748               0.999999997              -0.000073004              -0.000058696               0.999999997              -0.000080337              -0.000062675               0.999999997              -0.000088242              -0.000066722               0.999999997              -0.000096710              -0.000070662               0.999999997              -0.000003447              -0.000061906               0.999999997              -0.000014332              -0.000055543               0.999999997              -0.000019665              -0.000054262               0.999999997              -0.000023154              -0.000055856               0.999999997              -0.000026284              -0.000059183               0.999999997              -0.000029596              -0.000063663               0.999999997              -0.000033285              -0.000068906               0.999999997              -0.000037486              -0.000074711               0.999999997              -0.000042269              -0.000080999               0.999999997              -0.000047603              -0.000087658               0.999999997              -0.000053477              -0.000094805               0.999999997              -0.000059800              -0.000102057               0.999999997              -0.000066558              -0.000109574               0.999999997              -0.000073794              -0.000117449               0.999999997              -0.000081551              -0.000125625               0.999999997              -0.000089895              -0.000133937               0.999999997              -0.000098809              -0.000142321               0.999999997              -0.000003517              -0.000092069               0.999999997              -0.000012196              -0.000082465               0.999999997              -0.000016486              -0.000080827               0.999999997              -0.000019608              -0.000083455               0.999999997              -0.000022719              -0.000088605               0.999999997              -0.000026286              -0.000095413               0.999999997              -0.000030434              -0.000103404               0.999999997              -0.000035249              -0.000112265               0.999999997              -0.000040725              -0.000121800               0.999999997              -0.000046744              -0.000131891               0.999999997              -0.000053301              -0.000142501               0.999999997              -0.000060397              -0.000153457               0.999999997              -0.000067994              -0.000164704               0.999999997              -0.000076082              -0.000176517               0.999999997              -0.000084677              -0.000188848               0.999999997              -0.000093789              -0.000201617               0.999999997              -0.000103407              -0.000214592               0.999999997              -0.000003655              -0.000121234               0.999999997              -0.000009359              -0.000108515               0.999999997              -0.000012459              -0.000106823               0.999999997              -0.000015332              -0.000110707               0.999999997              -0.000018677              -0.000117866               0.999999997              -0.000022769              -0.000127151               0.999999997              -0.000027712              -0.000137923               0.999999997              -0.000033429              -0.000149857               0.999999997              -0.000039815              -0.000162581               0.999999997              -0.000046844              -0.000176017               0.999999997              -0.000054462              -0.000190105               0.999999997              -0.000062635              -0.000204707               0.999999997              -0.000071367              -0.000219663               0.999999997              -0.000080603              -0.000235307               0.999999997              -0.000090316              -0.000251770               0.999999997              -0.000100493              -0.000268775               0.999999997              -0.000111044              -0.000286201               0.999999997              -0.000003730              -0.000149181               0.999999997              -0.000005973              -0.000133574               0.999999997              -0.000008014              -0.000132122               0.999999997              -0.000010877              -0.000137439               0.999999997              -0.000014790              -0.000146664               0.999999997              -0.000019743              -0.000158446               0.999999997              -0.000025691              -0.000172096               0.999999997              -0.000032481              -0.000187042               0.999999997              -0.000040068              -0.000203004               0.999999997              -0.000048357              -0.000219769               0.999999997              -0.000057270              -0.000237229               0.999999997              -0.000066777              -0.000255423               0.999999997              -0.000076787              -0.000274176               0.999999997              -0.000087302              -0.000293643               0.999999997              -0.000098238              -0.000314077               0.999999997              -0.000109516              -0.000335217               0.999999997              -0.000121069              -0.000356779               0.999999997              -0.000003722              -0.000175629               0.999999997              -0.000002278              -0.000157575               0.999999997              -0.000003550              -0.000156584               0.999999997              -0.000006781              -0.000163347               0.999999997              -0.000011539              -0.000174712               0.999999997              -0.000017582              -0.000189064               0.999999997              -0.000024757              -0.000205537               0.999999997              -0.000032915              -0.000223501               0.999999997              -0.000041903              -0.000242637               0.999999997              -0.000051591              -0.000262743               0.999999997              -0.000061812              -0.000283643               0.999999997              -0.000072506              -0.000305545               0.999999997              -0.000083716              -0.000328187               0.999999997              -0.000095429              -0.000351646               0.999999997              -0.000107565              -0.000376054               0.999999997              -0.000119979              -0.000401181               0.999999997              -0.000132568              -0.000426623               0.999999997              -0.000003695              -0.000200235               0.999999997               0.000001457              -0.000180419               0.999999997               0.000000572              -0.000180027               0.999999997              -0.000003375              -0.000188313               0.999999997              -0.000009225              -0.000201810               0.999999997              -0.000016557              -0.000218725               0.999999997              -0.000025153              -0.000238029               0.999999997              -0.000034781              -0.000258934               0.999999997              -0.000045135              -0.000281330               0.999999997              -0.000056091              -0.000304878               0.999999997              -0.000067500              -0.000329523               0.999999997              -0.000079483              -0.000355228               0.999999997              -0.000091931              -0.000381920               0.999999997              -0.000104859              -0.000409505               0.999999997              -0.000118078              -0.000437944               0.999999997              -0.000131441              -0.000466832               0.999999997              -0.000144828              -0.000495935               0.999999997              -0.000003697              -0.000222621               0.999999997               0.000005112              -0.000202113               0.999999997               0.000003998              -0.000202292               0.999999997              -0.000000854              -0.000212116               0.999999997              -0.000007867              -0.000227788               0.999999997              -0.000016688              -0.000247254               0.999999997              -0.000026716              -0.000269384               0.999999997              -0.000037712              -0.000293438               0.999999997              -0.000049329              -0.000319200               0.999999997              -0.000061443              -0.000346397               0.999999997              -0.000074124              -0.000374953               0.999999997              -0.000087213              -0.000404808               0.999999997              -0.000100694              -0.000435747               0.999999997              -0.000114523              -0.000467530               0.999999997              -0.000128507              -0.000499850               0.999999997              -0.000142403              -0.000532472               0.999999997              -0.000156301              -0.000565185               0.999999997              -0.000003988              -0.000243538               0.999999997               0.000007459              -0.000224581               0.999999997               0.000007667              -0.000222553               0.999999997               0.000003749              -0.000229831               0.999999997              -0.000002383              -0.000242807               0.999999997              -0.000010200              -0.000259773               0.999999997              -0.000019136              -0.000279545               0.999999997              -0.000028950              -0.000301364               0.999999997              -0.000039377              -0.000324809               0.999999997              -0.000050245              -0.000349695               0.999999997              -0.000061452              -0.000375964               0.999999997              -0.000072903              -0.000403552               0.999999997              -0.000084595              -0.000432307               0.999999997              -0.000096539              -0.000462004               0.999999997              -0.000108713              -0.000492415               0.999999997              -0.000120872              -0.000523248               0.999999997              -0.000133006              -0.000554441               0.999999997              -0.000004003              -0.000262443               0.999999997               0.000008818              -0.000246068               0.999999997               0.000010386              -0.000243048               0.999999997               0.000007531              -0.000248273               0.999999997               0.000002423              -0.000258946               0.999999997              -0.000004217              -0.000273566               0.999999997              -0.000011956              -0.000291110               0.999999997              -0.000020501              -0.000310793               0.999999997              -0.000029753              -0.000332172               0.999999997              -0.000039462              -0.000354876               0.999999997              -0.000049232              -0.000378958               0.999999997              -0.000059061              -0.000404362               0.999999997              -0.000068992              -0.000430961               0.999999997              -0.000079079              -0.000458482               0.999999997              -0.000089278              -0.000486789               0.999999997              -0.000099439              -0.000515726               0.999999997              -0.000109638              -0.000545171               0.999999997              -0.000003811              -0.000278941               0.999999997               0.000009216              -0.000266016               0.999999997               0.000011867              -0.000262968               0.999999997               0.000010087              -0.000266858               0.999999997               0.000006193              -0.000275723               0.999999997               0.000000756              -0.000288388               0.999999997              -0.000005617              -0.000303986               0.999999997              -0.000012880              -0.000321749               0.999999997              -0.000020833              -0.000341235               0.999999997              -0.000029223              -0.000362201               0.999999997              -0.000037571              -0.000384383               0.999999997              -0.000045740              -0.000407815               0.999999997              -0.000053934              -0.000432398               0.999999997              -0.000062092              -0.000457926               0.999999997              -0.000070288              -0.000484223               0.999999997              -0.000078208              -0.000511107               0.999999997              -0.000085882              -0.000538660               0.999999997              -0.000003386              -0.000292765               0.999999997               0.000008677              -0.000283690               0.999999997               0.000011934              -0.000281356               0.999999997               0.000011148              -0.000284676               0.999999997               0.000008365              -0.000292268               0.999999997               0.000004289              -0.000303427               0.999999997              -0.000000744              -0.000317379               0.999999997              -0.000006544              -0.000333567               0.999999997              -0.000013076              -0.000351527               0.999999997              -0.000020027              -0.000370991               0.999999997              -0.000026953              -0.000391712               0.999999997              -0.000033534              -0.000413661               0.999999997              -0.000039911              -0.000436688               0.999999997              -0.000046326              -0.000460615               0.999999997              -0.000052450              -0.000485281               0.999999997              -0.000057939              -0.000510566               0.999999997              -0.000062704              -0.000536447               0.999999997              -0.000002753              -0.000303696               0.999999997               0.000007318              -0.000298368               0.999999997               0.000010557              -0.000297218               0.999999997               0.000010477              -0.000300424               0.999999997               0.000008694              -0.000307376               0.999999997               0.000005915              -0.000317438               0.999999997               0.000002232              -0.000330248               0.999999997              -0.000002067              -0.000345171               0.999999997              -0.000007051              -0.000361807               0.999999997              -0.000012491              -0.000380059               0.999999997              -0.000017920              -0.000399704               0.999999997              -0.000022956              -0.000420576               0.999999997              -0.000027694              -0.000442451               0.999999997              -0.000032231              -0.000465305               0.999999997              -0.000036410              -0.000488920               0.999999997              -0.000039797              -0.000513186               0.999999997              -0.000042109              -0.000537982               0.999999997              -0.000001957              -0.000311638               0.999999997               0.000005256              -0.000309314               0.999999997               0.000007870              -0.000309470               0.999999997               0.000008149              -0.000312954               0.999999997               0.000007134              -0.000319600               0.999999997               0.000005426              -0.000329038               0.999999997               0.000003067              -0.000340977               0.999999997               0.000000165              -0.000354947               0.999999997              -0.000003166              -0.000370717               0.999999997              -0.000006788              -0.000388143               0.999999997              -0.000010547              -0.000407083               0.999999997              -0.000014130              -0.000427279               0.999999997              -0.000017169              -0.000448575               0.999999997              -0.000019819              -0.000470892               0.999999997              -0.000022338              -0.000493967               0.999999997              -0.000024257              -0.000517594               0.999999997              -0.000024970              -0.000541718               0.999999997              -0.000001019              -0.000316483               0.999999997               0.000002728              -0.000316137               0.999999997               0.000004203              -0.000317176               0.999999997               0.000004428              -0.000320953               0.999999997               0.000003974              -0.000327550               0.999999997               0.000003170              -0.000336671               0.999999997               0.000002041              -0.000348111               0.999999997               0.000000589              -0.000361608               0.999999997              -0.000001072              -0.000376991               0.999999997              -0.000002812              -0.000393977               0.999999997              -0.000004793              -0.000412430               0.999999997              -0.000006653              -0.000432228               0.999999997              -0.000007968              -0.000453248               0.999999997              -0.000009216              -0.000475271               0.999999997              -0.000010511              -0.000498160               0.999999997              -0.000011427              -0.000521693               0.999999997              -0.000011380              -0.000545645               0.999999997              -0.000000000              -0.000318047               0.999999997              -0.000000000              -0.000318431               0.999999997              -0.000000000              -0.000319831               0.999999997               0.000000000              -0.000323731               0.999999997              -0.000000000              -0.000330361               0.999999997              -0.000000000              -0.000339351               0.999999997              -0.000000000              -0.000350586               0.999999997              -0.000000000              -0.000364026               0.999999997              -0.000000000              -0.000379360               0.999999997              -0.000000000              -0.000396169               0.999999997              -0.000000000              -0.000414416               0.999999997              -0.000000000              -0.000434050               0.999999997               0.000000000              -0.000454910               0.999999997               0.000000000              -0.000476814               0.999999997              -0.000000000              -0.000499674               0.999999997               0.000000000              -0.000523330               0.999999997               0.000000000              -0.000547392               0.999999997               0.000003307              -0.000000000               0.999999997               0.000016027              -0.000000000               0.999999997               0.000022450              -0.000000000               0.999999997               0.000026380              -0.000000000               0.999999997               0.000029573               0.000000000               0.999999997               0.000032744              -0.000000000               0.999999997               0.000036145              -0.000000000               0.999999997               0.000039996               0.000000000               0.999999997               0.000044301               0.000000000               0.999999997               0.000049051               0.000000000               0.999999997               0.000054271               0.000000000               0.999999997               0.000059975               0.000000000               0.999999997               0.000066164               0.000000000               0.999999997               0.000072869               0.000000000               0.999999997               0.000080123               0.000000000               0.999999997               0.000087918               0.000000000               0.999999997               0.000096263               0.000000000               0.999999997               0.000003368              -0.000031099               0.999999997               0.000015605              -0.000027974               0.999999997               0.000021714              -0.000027251               0.999999997               0.000025536              -0.000027974               0.999999997               0.000028680              -0.000029640               0.999999997               0.000031880              -0.000031849               0.999999997               0.000035404              -0.000034450               0.999999997               0.000039338              -0.000037351               0.999999997               0.000043748              -0.000040459               0.999999997               0.000048631              -0.000043800               0.999999997               0.000054015              -0.000047330               0.999999997               0.000059877              -0.000050991               0.999999997               0.000066204              -0.000054748               0.999999997               0.000073004              -0.000058696               0.999999997               0.000080337              -0.000062675               0.999999997               0.000088242              -0.000066722               0.999999997               0.000096710              -0.000070662               0.999999997               0.000003447              -0.000061906               0.999999997               0.000014332              -0.000055543               0.999999997               0.000019665              -0.000054262               0.999999997               0.000023154              -0.000055856               0.999999997               0.000026284              -0.000059183               0.999999997               0.000029596              -0.000063663               0.999999997               0.000033285              -0.000068906               0.999999997               0.000037486              -0.000074711               0.999999997               0.000042269              -0.000080999               0.999999997               0.000047603              -0.000087658               0.999999997               0.000053477              -0.000094805               0.999999997               0.000059800              -0.000102057               0.999999997               0.000066558              -0.000109574               0.999999997               0.000073794              -0.000117449               0.999999997               0.000081551              -0.000125625               0.999999997               0.000089895              -0.000133937               0.999999997               0.000098809              -0.000142321               0.999999997               0.000003517              -0.000092069               0.999999997               0.000012196              -0.000082465               0.999999997               0.000016486              -0.000080827               0.999999997               0.000019608              -0.000083455               0.999999997               0.000022719              -0.000088605               0.999999997               0.000026286              -0.000095413               0.999999997               0.000030434              -0.000103404               0.999999997               0.000035249              -0.000112265               0.999999997               0.000040725              -0.000121800               0.999999997               0.000046744              -0.000131891               0.999999997               0.000053301              -0.000142501               0.999999997               0.000060397              -0.000153457               0.999999997               0.000067994              -0.000164704               0.999999997               0.000076082              -0.000176517               0.999999997               0.000084677              -0.000188848               0.999999997               0.000093789              -0.000201617               0.999999997               0.000103407              -0.000214592               0.999999997               0.000003655              -0.000121234               0.999999997               0.000009359              -0.000108515               0.999999997               0.000012459              -0.000106823               0.999999997               0.000015332              -0.000110707               0.999999997               0.000018677              -0.000117866               0.999999997               0.000022769              -0.000127151               0.999999997               0.000027712              -0.000137923               0.999999997               0.000033429              -0.000149857               0.999999997               0.000039815              -0.000162581               0.999999997               0.000046844              -0.000176017               0.999999997               0.000054462              -0.000190105               0.999999997               0.000062635              -0.000204707               0.999999997               0.000071367              -0.000219663               0.999999997               0.000080603              -0.000235307               0.999999997               0.000090316              -0.000251770               0.999999997               0.000100493              -0.000268775               0.999999997               0.000111044              -0.000286201               0.999999997               0.000003730              -0.000149181               0.999999997               0.000005973              -0.000133574               0.999999997               0.000008014              -0.000132122               0.999999997               0.000010877              -0.000137439               0.999999997               0.000014790              -0.000146664               0.999999997               0.000019743              -0.000158446               0.999999997               0.000025691              -0.000172096               0.999999997               0.000032481              -0.000187042               0.999999997               0.000040068              -0.000203004               0.999999997               0.000048357              -0.000219769               0.999999997               0.000057270              -0.000237229               0.999999997               0.000066777              -0.000255423               0.999999997               0.000076787              -0.000274176               0.999999997               0.000087302              -0.000293643               0.999999997               0.000098238              -0.000314077               0.999999997               0.000109516              -0.000335217               0.999999997               0.000121069              -0.000356779               0.999999997               0.000003722              -0.000175629               0.999999997               0.000002278              -0.000157575               0.999999997               0.000003550              -0.000156584               0.999999997               0.000006781              -0.000163347               0.999999997               0.000011539              -0.000174712               0.999999997               0.000017582              -0.000189064               0.999999997               0.000024757              -0.000205537               0.999999997               0.000032915              -0.000223501               0.999999997               0.000041903              -0.000242637               0.999999997               0.000051591              -0.000262743               0.999999997               0.000061812              -0.000283643               0.999999997               0.000072506              -0.000305545               0.999999997               0.000083716              -0.000328187               0.999999997               0.000095429              -0.000351646               0.999999997               0.000107565              -0.000376054               0.999999997               0.000119979              -0.000401181               0.999999997               0.000132568              -0.000426623               0.999999997               0.000003695              -0.000200235               0.999999997              -0.000001457              -0.000180419               0.999999997              -0.000000572              -0.000180027               0.999999997               0.000003375              -0.000188313               0.999999997               0.000009225              -0.000201810               0.999999997               0.000016557              -0.000218725               0.999999997               0.000025153              -0.000238029               0.999999997               0.000034781              -0.000258934               0.999999997               0.000045135              -0.000281330               0.999999997               0.000056091              -0.000304878               0.999999997               0.000067500              -0.000329523               0.999999997               0.000079483              -0.000355228               0.999999997               0.000091931              -0.000381920               0.999999997               0.000104859              -0.000409505               0.999999997               0.000118078              -0.000437944               0.999999997               0.000131441              -0.000466832               0.999999997               0.000144828              -0.000495935               0.999999997               0.000003697              -0.000222621               0.999999997              -0.000005112              -0.000202113               0.999999997              -0.000003998              -0.000202292               0.999999997               0.000000854              -0.000212116               0.999999997               0.000007867              -0.000227788               0.999999997               0.000016688              -0.000247254               0.999999997               0.000026716              -0.000269384               0.999999997               0.000037712              -0.000293438               0.999999997               0.000049329              -0.000319200               0.999999997               0.000061443              -0.000346397               0.999999997               0.000074124              -0.000374953               0.999999997               0.000087213              -0.000404808               0.999999997               0.000100694              -0.000435747               0.999999997               0.000114523              -0.000467530               0.999999997               0.000128507              -0.000499850               0.999999997               0.000142403              -0.000532472               0.999999997               0.000156301              -0.000565185               0.999999997               0.000003988              -0.000243538               0.999999997              -0.000007459              -0.000224581               0.999999997              -0.000007667              -0.000222553               0.999999997              -0.000003749              -0.000229831               0.999999997               0.000002383              -0.000242807               0.999999997               0.000010200              -0.000259773               0.999999997               0.000019136              -0.000279545               0.999999997               0.000028950              -0.000301364               0.999999997               0.000039377              -0.000324809               0.999999997               0.000050245              -0.000349695               0.999999997               0.000061452              -0.000375964               0.999999997               0.000072903              -0.000403552               0.999999997               0.000084595              -0.000432307               0.999999997               0.000096539              -0.000462004               0.999999997               0.000108713              -0.000492415               0.999999997               0.000120872              -0.000523248               0.999999997               0.000133006              -0.000554441               0.999999997               0.000004003              -0.000262443               0.999999997              -0.000008818              -0.000246068               0.999999997              -0.000010386              -0.000243048               0.999999997              -0.000007531              -0.000248273               0.999999997              -0.000002423              -0.000258946               0.999999997               0.000004217              -0.000273566               0.999999997               0.000011956              -0.000291110               0.999999997               0.000020501              -0.000310793               0.999999997               0.000029753              -0.000332172               0.999999997               0.000039462              -0.000354876               0.999999997               0.000049232              -0.000378958               0.999999997               0.000059061              -0.000404362               0.999999997               0.000068992              -0.000430961               0.999999997               0.000079079              -0.000458482               0.999999997               0.000089278              -0.000486789               0.999999997               0.000099439              -0.000515726               0.999999997               0.000109638              -0.000545171               0.999999997               0.000003811              -0.000278941               0.999999997              -0.000009216              -0.000266016               0.999999997              -0.000011867              -0.000262968               0.999999997              -0.000010087              -0.000266858               0.999999997              -0.000006193              -0.000275723               0.999999997              -0.000000756              -0.000288388               0.999999997               0.000005617              -0.000303986               0.999999997               0.000012880              -0.000321749               0.999999997               0.000020833              -0.000341235               0.999999997               0.000029223              -0.000362201               0.999999997               0.000037571              -0.000384383               0.999999997               0.000045740              -0.000407815               0.999999997               0.000053934              -0.000432398               0.999999997               0.000062092              -0.000457926               0.999999997               0.000070288              -0.000484223               0.999999997               0.000078208              -0.000511107               0.999999997               0.000085882              -0.000538660               0.999999997               0.000003386              -0.000292765               0.999999997              -0.000008677              -0.000283690               0.999999997              -0.000011934              -0.000281356               0.999999997              -0.000011148              -0.000284676               0.999999997              -0.000008365              -0.000292268               0.999999997              -0.000004289              -0.000303427               0.999999997               0.000000744              -0.000317379               0.999999997               0.000006544              -0.000333567               0.999999997               0.000013076              -0.000351527               0.999999997               0.000020027              -0.000370991               0.999999997               0.000026953              -0.000391712               0.999999997               0.000033534              -0.000413661               0.999999997               0.000039911              -0.000436688               0.999999997               0.000046326              -0.000460615               0.999999997               0.000052450              -0.000485281               0.999999997               0.000057939              -0.000510566               0.999999997               0.000062704              -0.000536447               0.999999997               0.000002753              -0.000303696               0.999999997              -0.000007318              -0.000298368               0.999999997              -0.000010557              -0.000297218               0.999999997              -0.000010477              -0.000300424               0.999999997              -0.000008694              -0.000307376               0.999999997              -0.000005915              -0.000317438               0.999999997              -0.000002232              -0.000330248               0.999999997               0.000002067              -0.000345171               0.999999997               0.000007051              -0.000361807               0.999999997               0.000012491              -0.000380059               0.999999997               0.000017920              -0.000399704               0.999999997               0.000022956              -0.000420576               0.999999997               0.000027694              -0.000442451               0.999999997               0.000032231              -0.000465305               0.999999997               0.000036410              -0.000488920               0.999999997               0.000039797              -0.000513186               0.999999997               0.000042109              -0.000537982               0.999999997               0.000001957              -0.000311638               0.999999997              -0.000005256              -0.000309314               0.999999997              -0.000007870              -0.000309470               0.999999997              -0.000008149              -0.000312954               0.999999997              -0.000007134              -0.000319600               0.999999997              -0.000005426              -0.000329038               0.999999997              -0.000003067              -0.000340977               0.999999997              -0.000000165              -0.000354947               0.999999997               0.000003166              -0.000370717               0.999999997               0.000006788              -0.000388143               0.999999997               0.000010547              -0.000407083               0.999999997               0.000014130              -0.000427279               0.999999997               0.000017169              -0.000448575               0.999999997               0.000019819              -0.000470892               0.999999997               0.000022338              -0.000493967               0.999999997               0.000024257              -0.000517594               0.999999997               0.000024970              -0.000541718               0.999999997               0.000001019              -0.000316483               0.999999997              -0.000002728              -0.000316137               0.999999997              -0.000004203              -0.000317176               0.999999997              -0.000004428              -0.000320953               0.999999997              -0.000003974              -0.000327550               0.999999997              -0.000003170              -0.000336671               0.999999997              -0.000002041              -0.000348111               0.999999997              -0.000000589              -0.000361608               0.999999997               0.000001072              -0.000376991               0.999999997               0.000002812              -0.000393977               0.999999997               0.000004793              -0.000412430               0.999999997               0.000006653              -0.000432228               0.999999997               0.000007968              -0.000453248               0.999999997               0.000009216              -0.000475271               0.999999997               0.000010511              -0.000498160               0.999999997               0.000011427              -0.000521693               0.999999997               0.000011380              -0.000545645               0.999999997              -0.000000000              -0.000318047               0.999999997              -0.000000000              -0.000318431               0.999999997              -0.000000000              -0.000319831               0.999999997               0.000000000              -0.000323731               0.999999997              -0.000000000              -0.000330361               0.999999997              -0.000000000              -0.000339351               0.999999997              -0.000000000              -0.000350586               0.999999997              -0.000000000              -0.000364026               0.999999997              -0.000000000              -0.000379360               0.999999997              -0.000000000              -0.000396169               0.999999997              -0.000000000              -0.000414416               0.999999997              -0.000000000              -0.000434050               0.999999997               0.000000000              -0.000454910               0.999999997               0.000000000              -0.000476814               0.999999997              -0.000000000              -0.000499674               0.999999997               0.000000000              -0.000523330               0.999999997               0.000000000              -0.000547392               0.999999997               0.000003307              -0.000000000               0.999999997               0.000016027              -0.000000000               0.999999997               0.000022450              -0.000000000               0.999999997               0.000026380              -0.000000000               0.999999997               0.000029573               0.000000000               0.999999997               0.000032744              -0.000000000               0.999999997               0.000036145              -0.000000000               0.999999997               0.000039996               0.000000000               0.999999997               0.000044301               0.000000000               0.999999997               0.000049051               0.000000000               0.999999997               0.000054271               0.000000000               0.999999997               0.000059975               0.000000000               0.999999997               0.000066164               0.000000000               0.999999997               0.000072869               0.000000000               0.999999997               0.000080123               0.000000000               0.999999997               0.000087918               0.000000000               0.999999997               0.000096263               0.000000000               0.999999997               0.000003368               0.000031099               0.999999997               0.000015605               0.000027974               0.999999997               0.000021714               0.000027251               0.999999997               0.000025536               0.000027974               0.999999997               0.000028680               0.000029640               0.999999997               0.000031880               0.000031849               0.999999997               0.000035404               0.000034450               0.999999997               0.000039338               0.000037351               0.999999997               0.000043748               0.000040459               0.999999997               0.000048631               0.000043800               0.999999997               0.000054015               0.000047330               0.999999997               0.000059877               0.000050991               0.999999997               0.000066204               0.000054748               0.999999997               0.000073004               0.000058696               0.999999997               0.000080337               0.000062675               0.999999997               0.000088242               0.000066722               0.999999997               0.000096710               0.000070662               0.999999997               0.000003447               0.000061906               0.999999997               0.000014332               0.000055543               0.999999997               0.000019665               0.000054262               0.999999997               0.000023154               0.000055856               0.999999997               0.000026284               0.000059183               0.999999997               0.000029596               0.000063663               0.999999997               0.000033285               0.000068906               0.999999997               0.000037486               0.000074711               0.999999997               0.000042269               0.000080999               0.999999997               0.000047603               0.000087658               0.999999997               0.000053477               0.000094805               0.999999997               0.000059800               0.000102057               0.999999997               0.000066558               0.000109574               0.999999997               0.000073794               0.000117449               0.999999997               0.000081551               0.000125625               0.999999997               0.000089895               0.000133937               0.999999997               0.000098809               0.000142321               0.999999997               0.000003517               0.000092069               0.999999997               0.000012196               0.000082465               0.999999997               0.000016486               0.000080827               0.999999997               0.000019608               0.000083455               0.999999997               0.000022719               0.000088605               0.999999997               0.000026286               0.000095413               0.999999997               0.000030434               0.000103404               0.999999997               0.000035249               0.000112265               0.999999997               0.000040725               0.000121800               0.999999997               0.000046744               0.000131891               0.999999997               0.000053301               0.000142501               0.999999997               0.000060397               0.000153457               0.999999997               0.000067994               0.000164704               0.999999997               0.000076082               0.000176517               0.999999997               0.000084677               0.000188848               0.999999997               0.000093789               0.000201617               0.999999997               0.000103407               0.000214592               0.999999997               0.000003655               0.000121234               0.999999997               0.000009359               0.000108515               0.999999997               0.000012459               0.000106823               0.999999997               0.000015332               0.000110707               0.999999997               0.000018677               0.000117866               0.999999997               0.000022769               0.000127151               0.999999997               0.000027712               0.000137923               0.999999997               0.000033429               0.000149857               0.999999997               0.000039815               0.000162581               0.999999997               0.000046844               0.000176017               0.999999997               0.000054462               0.000190105               0.999999997               0.000062635               0.000204707               0.999999997               0.000071367               0.000219663               0.999999997               0.000080603               0.000235307               0.999999997               0.000090316               0.000251770               0.999999997               0.000100493               0.000268775               0.999999997               0.000111044               0.000286201               0.999999997               0.000003730               0.000149181               0.999999997               0.000005973               0.000133574               0.999999997               0.000008014               0.000132122               0.999999997               0.000010877               0.000137439               0.999999997               0.000014790               0.000146664               0.999999997               0.000019743               0.000158446               0.999999997               0.000025691               0.000172096               0.999999997               0.000032481               0.000187042               0.999999997               0.000040068               0.000203004               0.999999997               0.000048357               0.000219769               0.999999997               0.000057270               0.000237229               0.999999997               0.000066777               0.000255423               0.999999997               0.000076787               0.000274176               0.999999997               0.000087302               0.000293643               0.999999997               0.000098238               0.000314077               0.999999997               0.000109516               0.000335217               0.999999997               0.000121069               0.000356779               0.999999997               0.000003722               0.000175629               0.999999997               0.000002278               0.000157575               0.999999997               0.000003550               0.000156584               0.999999997               0.000006781               0.000163347               0.999999997               0.000011539               0.000174712               0.999999997               0.000017582               0.000189064               0.999999997               0.000024757               0.000205537               0.999999997               0.000032915               0.000223501               0.999999997               0.000041903               0.000242637               0.999999997               0.000051591               0.000262743               0.999999997               0.000061812               0.000283643               0.999999997               0.000072506               0.000305545               0.999999997               0.000083716               0.000328187               0.999999997               0.000095429               0.000351646               0.999999997               0.000107565               0.000376054               0.999999997               0.000119979               0.000401181               0.999999997               0.000132568               0.000426623               0.999999997               0.000003695               0.000200235               0.999999997              -0.000001457               0.000180419               0.999999997              -0.000000572               0.000180027               0.999999997               0.000003375               0.000188313               0.999999997               0.000009225               0.000201810               0.999999997               0.000016557               0.000218725               0.999999997               0.000025153               0.000238029               0.999999997               0.000034781               0.000258934               0.999999997               0.000045135               0.000281330               0.999999997               0.000056091               0.000304878               0.999999997               0.000067500               0.000329523               0.999999997               0.000079483               0.000355228               0.999999997               0.000091931               0.000381920               0.999999997               0.000104859               0.000409505               0.999999997               0.000118078               0.000437944               0.999999997               0.000131441               0.000466832               0.999999997               0.000144828               0.000495935               0.999999997               0.000003697               0.000222621               0.999999997              -0.000005112               0.000202113               0.999999997              -0.000003998               0.000202292               0.999999997               0.000000854               0.000212116               0.999999997               0.000007867               0.000227788               0.999999997               0.000016688               0.000247254               0.999999997               0.000026716               0.000269384               0.999999997               0.000037712               0.000293438               0.999999997               0.000049329               0.000319200               0.999999997               0.000061443               0.000346397               0.999999997               0.000074124               0.000374953               0.999999997               0.000087213               0.000404808               0.999999997               0.000100694               0.000435747               0.999999997               0.000114523               0.000467530               0.999999997               0.000128507               0.000499850               0.999999997               0.000142403               0.000532472               0.999999997               0.000156301               0.000565185               0.999999997               0.000003988               0.000243538               0.999999997              -0.000007459               0.000224581               0.999999997              -0.000007667               0.000222553               0.999999997              -0.000003749               0.000229831               0.999999997               0.000002383               0.000242807               0.999999997               0.000010200               0.000259773               0.999999997               0.000019136               0.000279545               0.999999997               0.000028950               0.000301364               0.999999997               0.000039377               0.000324809               0.999999997               0.000050245               0.000349695               0.999999997               0.000061452               0.000375964               0.999999997               0.000072903               0.000403552               0.999999997               0.000084595               0.000432307               0.999999997               0.000096539               0.000462004               0.999999997               0.000108713               0.000492415               0.999999997               0.000120872               0.000523248               0.999999997               0.000133006               0.000554441               0.999999997               0.000004003               0.000262443               0.999999997              -0.000008818               0.000246068               0.999999997              -0.000010386               0.000243048               0.999999997              -0.000007531               0.000248273               0.999999997              -0.000002423               0.000258946               0.999999997               0.000004217               0.000273566               0.999999997               0.000011956               0.000291110               0.999999997               0.000020501               0.000310793               0.999999997               0.000029753               0.000332172               0.999999997               0.000039462               0.000354876               0.999999997               0.000049232               0.000378958               0.999999997               0.000059061               0.000404362               0.999999997               0.000068992               0.000430961               0.999999997               0.000079079               0.000458482               0.999999997               0.000089278               0.000486789               0.999999997               0.000099439               0.000515726               0.999999997               0.000109638               0.000545171               0.999999997               0.000003811               0.000278941               0.999999997              -0.000009216               0.000266016               0.999999997              -0.000011867               0.000262968               0.999999997              -0.000010087               0.000266858               0.999999997              -0.000006193               0.000275723               0.999999997              -0.000000756               0.000288388               0.999999997               0.000005617               0.000303986               0.999999997               0.000012880               0.000321749               0.999999997               0.000020833               0.000341235               0.999999997               0.000029223               0.000362201               0.999999997               0.000037571               0.000384383               0.999999997               0.000045740               0.000407815               0.999999997               0.000053934               0.000432398               0.999999997               0.000062092               0.000457926               0.999999997               0.000070288               0.000484223               0.999999997               0.000078208               0.000511107               0.999999997               0.000085882               0.000538660               0.999999997               0.000003386               0.000292765               0.999999997              -0.000008677               0.000283690               0.999999997              -0.000011934               0.000281356               0.999999997              -0.000011148               0.000284676               0.999999997              -0.000008365               0.000292268               0.999999997              -0.000004289               0.000303427               0.999999997               0.000000744               0.000317379               0.999999997               0.000006544               0.000333567               0.999999997               0.000013076               0.000351527               0.999999997               0.000020027               0.000370991               0.999999997               0.000026953               0.000391712               0.999999997               0.000033534               0.000413661               0.999999997               0.000039911               0.000436688               0.999999997               0.000046326               0.000460615               0.999999997               0.000052450               0.000485281               0.999999997               0.000057939               0.000510566               0.999999997               0.000062704               0.000536447               0.999999997               0.000002753               0.000303696               0.999999997              -0.000007318               0.000298368               0.999999997              -0.000010557               0.000297218               0.999999997              -0.000010477               0.000300424               0.999999997              -0.000008694               0.000307376               0.999999997              -0.000005915               0.000317438               0.999999997              -0.000002232               0.000330248               0.999999997               0.000002067               0.000345171               0.999999997               0.000007051               0.000361807               0.999999997               0.000012491               0.000380059               0.999999997               0.000017920               0.000399704               0.999999997               0.000022956               0.000420576               0.999999997               0.000027694               0.000442451               0.999999997               0.000032231               0.000465305               0.999999997               0.000036410               0.000488920               0.999999997               0.000039797               0.000513186               0.999999997               0.000042109               0.000537982               0.999999997               0.000001957               0.000311638               0.999999997              -0.000005256               0.000309314               0.999999997              -0.000007870               0.000309470               0.999999997              -0.000008149               0.000312954               0.999999997              -0.000007134               0.000319600               0.999999997              -0.000005426               0.000329038               0.999999997              -0.000003067               0.000340977               0.999999997              -0.000000165               0.000354947               0.999999997               0.000003166               0.000370717               0.999999997               0.000006788               0.000388143               0.999999997               0.000010547               0.000407083               0.999999997               0.000014130               0.000427279               0.999999997               0.000017169               0.000448575               0.999999997               0.000019819               0.000470892               0.999999997               0.000022338               0.000493967               0.999999997               0.000024257               0.000517594               0.999999997               0.000024970               0.000541718               0.999999997               0.000001019               0.000316483               0.999999997              -0.000002728               0.000316137               0.999999997              -0.000004203               0.000317176               0.999999997              -0.000004428               0.000320953               0.999999997              -0.000003974               0.000327550               0.999999997              -0.000003170               0.000336671               0.999999997              -0.000002041               0.000348111               0.999999997              -0.000000589               0.000361608               0.999999997               0.000001072               0.000376991               0.999999997               0.000002812               0.000393977               0.999999997               0.000004793               0.000412430               0.999999997               0.000006653               0.000432228               0.999999997               0.000007968               0.000453248               0.999999997               0.000009216               0.000475271               0.999999997               0.000010511               0.000498160               0.999999997               0.000011427               0.000521693               0.999999997               0.000011380               0.000545645               0.999999997               0.000000000               0.000318047               0.999999997               0.000000000               0.000318431               0.999999997              -0.000000000               0.000319831               0.999999997               0.000000000               0.000323731               0.999999997              -0.000000000               0.000330361               0.999999997              -0.000000000               0.000339351               0.999999997              -0.000000000               0.000350586               0.999999997              -0.000000000               0.000364026               0.999999997              -0.000000000               0.000379360               0.999999997               0.000000000               0.000396169               0.999999997               0.000000000               0.000414416               0.999999997              -0.000000000               0.000434050               0.999999997              -0.000000000               0.000454910               0.999999997              -0.000000000               0.000476814               0.999999997               0.000000000               0.000499674               0.999999997               0.000000000               0.000523330               0.999999997               0.000000000               0.000547392               0.999999997 </DataArray>
<DataArray type="Float64"                                    Name="stress"                                                      NumberOfComponents="10" format="ascii">
              0.000491162               0.005845014              -0.000000000              -0.000546440               0.002130465               0.001584025               0.000000000               0.000000000               0.000000000               0.000000000               0.000546386               0.004863137              -0.000000000              -0.000402996               0.001755362               0.001352365               0.000000000               0.000000000               0.000000000               0.000000000               0.000765565               0.004064744              -0.000000000              -0.000221006               0.001428570               0.001207564               0.000000000               0.000000000               0.000000000               0.000000000               0.000795500               0.003625122               0.000000000              -0.000154827               0.001259971               0.001105144               0.000000000               0.000000000               0.000000000               0.000000000               0.000750137               0.003369906               0.000000000              -0.000139937               0.001169936               0.001030000               0.000000000               0.000000000               0.000000000               0.000000000               0.000682641               0.003213709               0.000000000              -0.000145723               0.001119800               0.000974077               0.000000000               0.000000000               0.000000000               0.000000000               0.000609869               0.003115734              -0.000000000              -0.000160765               0.001092156               0.000931391               0.000000000               0.000000000               0.000000000               0.000000000               0.000537755               0.003054115              -0.000000000              -0.000180106               0.001078063               0.000897958               0.000000000               0.000000000               0.000000000               0.000000000               0.000472740               0.003016984              -0.000000000              -0.000199845               0.001072266               0.000872421               0.000000000               0.000000000               0.000000000               0.000000000               0.000412703               0.002998266              -0.000000000              -0.000220019               0.001072752               0.000852732               0.000000000               0.000000000               0.000000000               0.000000000               0.000355102               0.002991472              -0.000000000              -0.000240770               0.001077404               0.000836634               0.000000000               0.000000000               0.000000000               0.000000000               0.000299726               0.002991398               0.000000000              -0.000261527               0.001084298               0.000822772               0.000000000               0.000000000               0.000000000               0.000000000               0.000244426               0.002995340              -0.000000000              -0.000282757               0.001092689               0.000809932               0.000000000               0.000000000               0.000000000               0.000000000               0.000186507               0.003003235              -0.000000000              -0.000305463               0.001102889               0.000797426               0.000000000               0.000000000               0.000000000               0.000000000               0.000125367               0.003010113              -0.000000000              -0.000329251               0.001113111               0.000783861               0.000000000               0.000000000               0.000000000               0.000000000               0.000063059               0.003015206              -0.000000000              -0.000353253               0.001122809               0.000769557               0.000000000               0.000000000               0.000000000               0.000000000               0.000032944               0.003019494              -0.000000000              -0.000365082               0.001128182               0.000763100               0.000000000               0.000000000               0.000000000               0.000000000               0.000526615               0.005751027              -0.000446431              -0.000521397               0.002090789               0.001569392               0.000000000               0.000000000               0.000000000               0.000000000               0.000560496               0.004792387              -0.000292391              -0.000388862               0.001727067               0.001338205               0.000000000               0.000000000               0.000000000               0.000000000               0.000756059               0.004026193              -0.000130315              -0.000219752               0.001415301               0.001195550               0.000000000               0.000000000               0.000000000               0.000000000               0.000774631               0.003604335              -0.000051709              -0.000160055               0.001254784               0.001094730               0.000000000               0.000000000               0.000000000               0.000000000               0.000725053               0.003355453              -0.000013452              -0.000147536               0.001167652               0.001020116               0.000000000               0.000000000               0.000000000               0.000000000               0.000655346               0.003203608               0.000004799              -0.000154696               0.001119424               0.000964728               0.000000000               0.000000000               0.000000000               0.000000000               0.000583804               0.003108858               0.000013851              -0.000169680               0.001092836               0.000923156               0.000000000               0.000000000               0.000000000               0.000000000               0.000513984               0.003049139               0.000017884              -0.000188398               0.001079169               0.000890771               0.000000000               0.000000000               0.000000000               0.000000000               0.000449689               0.003013786               0.000019170              -0.000208089               0.001073948               0.000865859               0.000000000               0.000000000               0.000000000               0.000000000               0.000390165               0.002995350               0.000019618              -0.000228106               0.001074475               0.000846369               0.000000000               0.000000000               0.000000000               0.000000000               0.000335340               0.002990347               0.000017584              -0.000248040               0.001079452               0.000831412               0.000000000               0.000000000               0.000000000               0.000000000               0.000283736               0.002990068               0.000014669              -0.000267357               0.001085798               0.000818441               0.000000000               0.000000000               0.000000000               0.000000000               0.000232767               0.002994669               0.000014671              -0.000287045               0.001093895               0.000806850               0.000000000               0.000000000               0.000000000               0.000000000               0.000178879               0.003004078               0.000014512              -0.000308429               0.001104159               0.000795730               0.000000000               0.000000000               0.000000000               0.000000000               0.000120374               0.003015581               0.000012247              -0.000331807               0.001115786               0.000783979               0.000000000               0.000000000               0.000000000               0.000000000               0.000060019               0.003026638               0.000007256              -0.000355822               0.001127476               0.000771655               0.000000000               0.000000000               0.000000000               0.000000000               0.000032497               0.003037434               0.000002710              -0.000367492               0.001134965               0.000767473               0.000000000               0.000000000               0.000000000               0.000000000               0.000617997               0.005476496              -0.000846564              -0.000452813               0.001976418               0.001523605               0.000000000               0.000000000               0.000000000               0.000000000               0.000592552               0.004593242              -0.000553957              -0.000351948               0.001648381               0.001296434               0.000000000               0.000000000               0.000000000               0.000000000               0.000725755               0.003916831              -0.000250331              -0.000217445               0.001378079               0.001160634               0.000000000               0.000000000               0.000000000               0.000000000               0.000715128               0.003542046              -0.000107203              -0.000174582               0.001238864               0.001064282               0.000000000               0.000000000               0.000000000               0.000000000               0.000655274               0.003316480              -0.000036511              -0.000168832               0.001161760               0.000992928               0.000000000               0.000000000               0.000000000               0.000000000               0.000586719               0.003179047              -0.000001274              -0.000177361               0.001118792               0.000941431               0.000000000               0.000000000               0.000000000               0.000000000               0.000519133               0.003094880               0.000015236              -0.000192185               0.001095678               0.000903493               0.000000000               0.000000000               0.000000000               0.000000000               0.000452378               0.003042813               0.000021859              -0.000210709               0.001084497               0.000873788               0.000000000               0.000000000               0.000000000               0.000000000               0.000391480               0.003012755               0.000023278              -0.000229789               0.001080838               0.000851049               0.000000000               0.000000000               0.000000000               0.000000000               0.000336272               0.002996874               0.000024884              -0.000248507               0.001081784               0.000833277               0.000000000               0.000000000               0.000000000               0.000000000               0.000287064               0.002991384               0.000022438              -0.000266273               0.001085876               0.000819602               0.000000000               0.000000000               0.000000000               0.000000000               0.000243794               0.002992537               0.000016744              -0.000282644               0.001091717               0.000809073               0.000000000               0.000000000               0.000000000               0.000000000               0.000200312               0.002997789               0.000016619              -0.000299606               0.001099122               0.000799516               0.000000000               0.000000000               0.000000000               0.000000000               0.000153745               0.003008667               0.000018127              -0.000318428               0.001109022               0.000790593               0.000000000               0.000000000               0.000000000               0.000000000               0.000102776               0.003025522               0.000016160              -0.000339648               0.001121713               0.000782065               0.000000000               0.000000000               0.000000000               0.000000000               0.000049963               0.003046620               0.000010155              -0.000362091               0.001136227               0.000774136               0.000000000               0.000000000               0.000000000               0.000000000               0.000027889               0.003066404               0.000004663              -0.000372841               0.001146405               0.000773564               0.000000000               0.000000000               0.000000000               0.000000000               0.000747745               0.005051093              -0.001166875              -0.000350982               0.001800675               0.001449692               0.000000000               0.000000000               0.000000000               0.000000000               0.000632639               0.004294872              -0.000765030              -0.000299619               0.001531483               0.001231863               0.000000000               0.000000000               0.000000000               0.000000000               0.000673021               0.003754940              -0.000353657              -0.000216984               0.001323962               0.001106978               0.000000000               0.000000000               0.000000000               0.000000000               0.000630734               0.003450925              -0.000166115              -0.000194840               0.001215243               0.001020404               0.000000000               0.000000000               0.000000000               0.000000000               0.000563535               0.003265790              -0.000073969              -0.000196898               0.001154218               0.000957321               0.000000000               0.000000000               0.000000000               0.000000000               0.000494236               0.003149637              -0.000027553              -0.000208366               0.001119324               0.000910958               0.000000000               0.000000000               0.000000000               0.000000000               0.000430399               0.003077898              -0.000005918              -0.000223337               0.001100401               0.000877064               0.000000000               0.000000000               0.000000000               0.000000000               0.000371158               0.003034665               0.000002588              -0.000240148               0.001091594               0.000851446               0.000000000               0.000000000               0.000000000               0.000000000               0.000319588               0.003008264               0.000005576              -0.000256187               0.001088140               0.000831954               0.000000000               0.000000000               0.000000000               0.000000000               0.000274825               0.002994226               0.000007363              -0.000271218               0.001088471               0.000817253               0.000000000               0.000000000               0.000000000               0.000000000               0.000231447               0.002986570               0.000005975              -0.000286528               0.001091023               0.000804495               0.000000000               0.000000000               0.000000000               0.000000000               0.000191694               0.002987248               0.000000113              -0.000301520               0.001096246               0.000794726               0.000000000               0.000000000               0.000000000               0.000000000               0.000153825               0.002991545              -0.000000122              -0.000316258               0.001102591               0.000786333               0.000000000               0.000000000               0.000000000               0.000000000               0.000115649               0.003001625               0.000005414              -0.000331834               0.001111143               0.000779309               0.000000000               0.000000000               0.000000000               0.000000000               0.000076097               0.003019252               0.000008653              -0.000348869               0.001122697               0.000773828               0.000000000               0.000000000               0.000000000               0.000000000               0.000036394               0.003042485               0.000006809              -0.000366662               0.001136372               0.000769710               0.000000000               0.000000000               0.000000000               0.000000000               0.000021068               0.003063454               0.000002418              -0.000375030               0.001146151               0.000771121               0.000000000               0.000000000               0.000000000               0.000000000               0.000889024               0.004526334              -0.001383831              -0.000232409               0.001586232               0.001353824               0.000000000               0.000000000               0.000000000               0.000000000               0.000672689               0.003934312              -0.000915598              -0.000239531               0.001391268               0.001151737               0.000000000               0.000000000               0.000000000               0.000000000               0.000606913               0.003562848              -0.000440626              -0.000217763               0.001260192               0.001042429               0.000000000               0.000000000               0.000000000               0.000000000               0.000532911               0.003339954              -0.000229973              -0.000217652               0.001185858               0.000968206               0.000000000               0.000000000               0.000000000               0.000000000               0.000463117               0.003197905              -0.000127341              -0.000226069               0.001141314               0.000915245               0.000000000               0.000000000               0.000000000               0.000000000               0.000396642               0.003105264              -0.000075002              -0.000239417               0.001114883               0.000875466               0.000000000               0.000000000               0.000000000               0.000000000               0.000338476               0.003046645              -0.000048066              -0.000253901               0.001100172               0.000846271               0.000000000               0.000000000               0.000000000               0.000000000               0.000289498               0.003008950              -0.000035174              -0.000267556               0.001092159               0.000824602               0.000000000               0.000000000               0.000000000               0.000000000               0.000247143               0.002985084              -0.000029890              -0.000280456               0.001088503               0.000808047               0.000000000               0.000000000               0.000000000               0.000000000               0.000209568               0.002970461              -0.000026756              -0.000292719               0.001087717               0.000794998               0.000000000               0.000000000               0.000000000               0.000000000               0.000174400               0.002962104              -0.000025647              -0.000304862               0.001088979               0.000784116               0.000000000               0.000000000               0.000000000               0.000000000               0.000140632               0.002961776              -0.000028908              -0.000317484               0.001093077               0.000775593               0.000000000               0.000000000               0.000000000               0.000000000               0.000108348               0.002967234              -0.000027296              -0.000330273               0.001099159               0.000768886               0.000000000               0.000000000               0.000000000               0.000000000               0.000077872               0.002976651              -0.000015294              -0.000342879               0.001106500               0.000763621               0.000000000               0.000000000               0.000000000               0.000000000               0.000048512               0.002992113              -0.000004494              -0.000355821               0.001115968               0.000760147               0.000000000               0.000000000               0.000000000               0.000000000               0.000021650               0.003011411               0.000000021              -0.000368307               0.001126562               0.000758256               0.000000000               0.000000000               0.000000000               0.000000000               0.000013051               0.003028020              -0.000000724              -0.000373607               0.001133866               0.000760258               0.000000000               0.000000000               0.000000000               0.000000000               0.001004500               0.003949437              -0.001493119              -0.000116993               0.001355463               0.001238470               0.000000000               0.000000000               0.000000000               0.000000000               0.000698133               0.003545862              -0.001007156              -0.000181433               0.001242420               0.001060986               0.000000000               0.000000000               0.000000000               0.000000000               0.000534669               0.003353791              -0.000514919              -0.000218723               0.001190827               0.000972104               0.000000000               0.000000000               0.000000000               0.000000000               0.000436295               0.003207658              -0.000299055              -0.000237346               0.001148324               0.000910978               0.000000000               0.000000000               0.000000000               0.000000000               0.000366775               0.003106857              -0.000191338              -0.000250816               0.001119214               0.000868398               0.000000000               0.000000000               0.000000000               0.000000000               0.000309685               0.003039452              -0.000132896              -0.000263799               0.001101073               0.000837275               0.000000000               0.000000000               0.000000000               0.000000000               0.000262142               0.002994879              -0.000100457              -0.000276056               0.001090302               0.000814246               0.000000000               0.000000000               0.000000000               0.000000000               0.000222362               0.002963602              -0.000083218              -0.000287064               0.001083545               0.000796481               0.000000000               0.000000000               0.000000000               0.000000000               0.000187846               0.002944115              -0.000074274              -0.000297571               0.001080552               0.000782981               0.000000000               0.000000000               0.000000000               0.000000000               0.000158026               0.002932613              -0.000068645              -0.000307316               0.001079966               0.000772650               0.000000000               0.000000000               0.000000000               0.000000000               0.000128795               0.002926320              -0.000061191              -0.000317491               0.001081260               0.000763769               0.000000000               0.000000000               0.000000000               0.000000000               0.000100879               0.002929988              -0.000055410              -0.000328418               0.001086125               0.000757707               0.000000000               0.000000000               0.000000000               0.000000000               0.000073810               0.002940721              -0.000048564              -0.000339910               0.001093534               0.000753624               0.000000000               0.000000000               0.000000000               0.000000000               0.000048437               0.002953527              -0.000031880              -0.000351026               0.001101508               0.000750482               0.000000000               0.000000000               0.000000000               0.000000000               0.000028249               0.002967857              -0.000014017              -0.000360388               0.001109405               0.000749017               0.000000000               0.000000000               0.000000000               0.000000000               0.000012368               0.002982914              -0.000004420              -0.000368225               0.001117037               0.000748811               0.000000000               0.000000000               0.000000000               0.000000000               0.000007618               0.002992914              -0.000002925              -0.000371257               0.001121380               0.000750124               0.000000000               0.000000000               0.000000000               0.000000000               0.001076469               0.003356335              -0.001505770              -0.000015868               0.001124056               0.001108188               0.000000000               0.000000000               0.000000000               0.000000000               0.000705157               0.003153466              -0.001048252              -0.000129750               0.001094395               0.000964644               0.000000000               0.000000000               0.000000000               0.000000000               0.000463014               0.003136867              -0.000579804              -0.000218478               0.001118438               0.000899960               0.000000000               0.000000000               0.000000000               0.000000000               0.000355559               0.003065557              -0.000370217              -0.000249860               0.001105129               0.000855269               0.000000000               0.000000000               0.000000000               0.000000000               0.000293879               0.003007120              -0.000258321              -0.000265685               0.001090925               0.000825240               0.000000000               0.000000000               0.000000000               0.000000000               0.000247293               0.002964436              -0.000194254              -0.000277819               0.001080742               0.000802923               0.000000000               0.000000000               0.000000000               0.000000000               0.000208060               0.002931527              -0.000156876              -0.000288418               0.001073305               0.000784887               0.000000000               0.000000000               0.000000000               0.000000000               0.000176366               0.002907048              -0.000133694              -0.000297243               0.001068087               0.000770844               0.000000000               0.000000000               0.000000000               0.000000000               0.000149579               0.002894737              -0.000116901              -0.000305749               0.001066819               0.000761070               0.000000000               0.000000000               0.000000000               0.000000000               0.000128180               0.002892547              -0.000103881              -0.000313500               0.001068673               0.000755173               0.000000000               0.000000000               0.000000000               0.000000000               0.000108874               0.002899588              -0.000088313              -0.000321620               0.001073726               0.000752106               0.000000000               0.000000000               0.000000000               0.000000000               0.000086896               0.002911969              -0.000073231              -0.000331410               0.001081117               0.000749707               0.000000000               0.000000000               0.000000000               0.000000000               0.000062247               0.002928882              -0.000060470              -0.000342767               0.001090540               0.000747773               0.000000000               0.000000000               0.000000000               0.000000000               0.000039338               0.002946721              -0.000041859              -0.000353588               0.001100093               0.000746506               0.000000000               0.000000000               0.000000000               0.000000000               0.000022675               0.002960369              -0.000021940              -0.000361542               0.001107294               0.000745752               0.000000000               0.000000000               0.000000000               0.000000000               0.000011116               0.002967240              -0.000009642              -0.000366735               0.001111315               0.000744580               0.000000000               0.000000000               0.000000000               0.000000000               0.000006684               0.002969513              -0.000006197              -0.000368682               0.001112722               0.000744040               0.000000000               0.000000000               0.000000000               0.000000000               0.001101147               0.002784644              -0.001434106               0.000064847               0.000906589               0.000971436               0.000000000               0.000000000               0.000000000               0.000000000               0.000693184               0.002780125              -0.001047307              -0.000087573               0.000955890               0.000868317               0.000000000               0.000000000               0.000000000               0.000000000               0.000403953               0.002923037              -0.000636728              -0.000213897               0.001045635               0.000831738               0.000000000               0.000000000               0.000000000               0.000000000               0.000300271               0.002924184              -0.000437403              -0.000252921               0.001059025               0.000806104               0.000000000               0.000000000               0.000000000               0.000000000               0.000246569               0.002905676              -0.000321452              -0.000270746               0.001058798               0.000788052               0.000000000               0.000000000               0.000000000               0.000000000               0.000209606               0.002885342              -0.000251822              -0.000282065               0.001055793               0.000773728               0.000000000               0.000000000               0.000000000               0.000000000               0.000177028               0.002866029              -0.000208203              -0.000291867               0.001052623               0.000760755               0.000000000               0.000000000               0.000000000               0.000000000               0.000153077               0.002855393              -0.000175634              -0.000299520               0.001051628               0.000752108               0.000000000               0.000000000               0.000000000               0.000000000               0.000135502               0.002857281              -0.000147632              -0.000306346               0.001054533               0.000748187               0.000000000               0.000000000               0.000000000               0.000000000               0.000120122               0.002869011              -0.000124378              -0.000313580               0.001060854               0.000747274               0.000000000               0.000000000               0.000000000               0.000000000               0.000104890               0.002890381              -0.000103010              -0.000321963               0.001070772               0.000748808               0.000000000               0.000000000               0.000000000               0.000000000               0.000085364               0.002914031              -0.000082859              -0.000332241               0.001082081               0.000749840               0.000000000               0.000000000               0.000000000               0.000000000               0.000062759               0.002937981              -0.000064655              -0.000343712               0.001093888               0.000750176               0.000000000               0.000000000               0.000000000               0.000000000               0.000040990               0.002956934              -0.000044665              -0.000354245               0.001103717               0.000749472               0.000000000               0.000000000               0.000000000               0.000000000               0.000025986               0.002965567              -0.000025377              -0.000360950               0.001108829               0.000747879               0.000000000               0.000000000               0.000000000               0.000000000               0.000013336               0.002963640              -0.000011451              -0.000365453               0.001109688               0.000744235               0.000000000               0.000000000               0.000000000               0.000000000               0.000005586               0.002959206              -0.000005066              -0.000367805               0.001108994               0.000741189               0.000000000               0.000000000               0.000000000               0.000000000               0.001095248               0.002280332              -0.001306421               0.000125674               0.000718211               0.000843885               0.000000000               0.000000000               0.000000000               0.000000000               0.000685620               0.002443355              -0.001026767              -0.000048313               0.000830548               0.000782235               0.000000000               0.000000000               0.000000000               0.000000000               0.000376688               0.002728867              -0.000701036              -0.000199850               0.000976230               0.000776380               0.000000000               0.000000000               0.000000000               0.000000000               0.000281000               0.002802784              -0.000509352              -0.000244973               0.001015910               0.000770937               0.000000000               0.000000000               0.000000000               0.000000000               0.000230625               0.002822980              -0.000389523              -0.000266388               0.001029780               0.000763392               0.000000000               0.000000000               0.000000000               0.000000000               0.000197631               0.002827294              -0.000312817              -0.000279299               0.001035522               0.000756222               0.000000000               0.000000000               0.000000000               0.000000000               0.000172023               0.002826482              -0.000258808              -0.000288801               0.001038418               0.000749617               0.000000000               0.000000000               0.000000000               0.000000000               0.000153776               0.002832306              -0.000216368              -0.000296371               0.001042883               0.000746511               0.000000000               0.000000000               0.000000000               0.000000000               0.000142668               0.002845408              -0.000178476              -0.000302175               0.001049185               0.000747010               0.000000000               0.000000000               0.000000000               0.000000000               0.000131057               0.002866587              -0.000146664              -0.000309176               0.001058578               0.000749402               0.000000000               0.000000000               0.000000000               0.000000000               0.000119138               0.002898404              -0.000118076              -0.000317623               0.001071999               0.000754376               0.000000000               0.000000000               0.000000000               0.000000000               0.000103199               0.002932953              -0.000091394              -0.000327919               0.001086947               0.000759029               0.000000000               0.000000000               0.000000000               0.000000000               0.000081174               0.002961167              -0.000068462              -0.000339705               0.001100281               0.000760576               0.000000000               0.000000000               0.000000000               0.000000000               0.000057191               0.002977756              -0.000047633              -0.000350772               0.001109499               0.000758728               0.000000000               0.000000000               0.000000000               0.000000000               0.000038415               0.002981089              -0.000027465              -0.000358230               0.001113096               0.000754867               0.000000000               0.000000000               0.000000000               0.000000000               0.000019998               0.002974420              -0.000010438              -0.000364302               0.001112898               0.000748595               0.000000000               0.000000000               0.000000000               0.000000000               0.000006422               0.002966841              -0.000002085              -0.000368446               0.001111752               0.000743306               0.000000000               0.000000000               0.000000000               0.000000000               0.001050578               0.001787870              -0.001153984               0.000170480               0.000539123               0.000709604               0.000000000               0.000000000               0.000000000               0.000000000               0.000693854               0.002053793              -0.000998647               0.000003470               0.000683434               0.000686904               0.000000000               0.000000000               0.000000000               0.000000000               0.000392031               0.002447983              -0.000779178              -0.000158987               0.000868982               0.000709995               0.000000000               0.000000000               0.000000000               0.000000000               0.000297422               0.002603375              -0.000602621              -0.000213888               0.000939079               0.000725191               0.000000000               0.000000000               0.000000000               0.000000000               0.000251416               0.002678129              -0.000478854              -0.000240485               0.000972862               0.000732378               0.000000000               0.000000000               0.000000000               0.000000000               0.000217495               0.002723012              -0.000390746              -0.000258816               0.000993933               0.000735118               0.000000000               0.000000000               0.000000000               0.000000000               0.000191264               0.002750582              -0.000325564              -0.000272098               0.001007551               0.000735453               0.000000000               0.000000000               0.000000000               0.000000000               0.000170722               0.002771989              -0.000275238              -0.000282477               0.001018146               0.000735669               0.000000000               0.000000000               0.000000000               0.000000000               0.000159989               0.002795285              -0.000232775              -0.000289414               0.001028224               0.000738810               0.000000000               0.000000000               0.000000000               0.000000000               0.000154121               0.002826699              -0.000193775              -0.000295541               0.001040737               0.000745196               0.000000000               0.000000000               0.000000000               0.000000000               0.000143796               0.002868803              -0.000155342              -0.000304676               0.001057817               0.000753141               0.000000000               0.000000000               0.000000000               0.000000000               0.000127856               0.002912874              -0.000119733              -0.000316162               0.001076336               0.000760173               0.000000000               0.000000000               0.000000000               0.000000000               0.000105450               0.002948077              -0.000089260              -0.000328965               0.001092337               0.000763372               0.000000000               0.000000000               0.000000000               0.000000000               0.000077945               0.002969096              -0.000062887              -0.000341907               0.001103658               0.000761751               0.000000000               0.000000000               0.000000000               0.000000000               0.000048548               0.002975776              -0.000036958              -0.000353766               0.001109837               0.000756072               0.000000000               0.000000000               0.000000000               0.000000000               0.000020956               0.002975867              -0.000013271              -0.000364124               0.001113320               0.000749196               0.000000000               0.000000000               0.000000000               0.000000000               0.000003111               0.002972171              -0.000000874              -0.000370354               0.001114165               0.000743811               0.000000000               0.000000000               0.000000000               0.000000000               0.000949598               0.001324222              -0.000976120               0.000190569               0.000377880               0.000568448               0.000000000               0.000000000               0.000000000               0.000000000               0.000699526               0.001665207              -0.000943618               0.000054170               0.000537006               0.000591176               0.000000000               0.000000000               0.000000000               0.000000000               0.000441554               0.002133204              -0.000839134              -0.000101069               0.000744750               0.000643682               0.000000000               0.000000000               0.000000000               0.000000000               0.000348573               0.002365321              -0.000694116              -0.000164950               0.000843416               0.000678465               0.000000000               0.000000000               0.000000000               0.000000000               0.000298700               0.002500966              -0.000571975              -0.000200608               0.000900516               0.000699908               0.000000000               0.000000000               0.000000000               0.000000000               0.000262287               0.002593425              -0.000476948              -0.000225820               0.000939740               0.000713919               0.000000000               0.000000000               0.000000000               0.000000000               0.000230956               0.002655852              -0.000403515              -0.000245373               0.000967066               0.000721693               0.000000000               0.000000000               0.000000000               0.000000000               0.000206658               0.002700899              -0.000348178              -0.000260115               0.000986996               0.000726881               0.000000000               0.000000000               0.000000000               0.000000000               0.000191458               0.002739350              -0.000303601              -0.000270621               0.001003315               0.000732693               0.000000000               0.000000000               0.000000000               0.000000000               0.000183930               0.002783147              -0.000258556              -0.000278919               0.001020679               0.000741761               0.000000000               0.000000000               0.000000000               0.000000000               0.000174575               0.002835979              -0.000210235              -0.000289031               0.001041661               0.000752629               0.000000000               0.000000000               0.000000000               0.000000000               0.000157968               0.002888736              -0.000165900              -0.000301853               0.001063520               0.000761667               0.000000000               0.000000000               0.000000000               0.000000000               0.000134182               0.002929031              -0.000127742              -0.000315810               0.001081604               0.000765794               0.000000000               0.000000000               0.000000000               0.000000000               0.000102972               0.002953711              -0.000093584              -0.000330599               0.001094760               0.000764161               0.000000000               0.000000000               0.000000000               0.000000000               0.000067087               0.002966680              -0.000058829              -0.000345677               0.001104109               0.000758433               0.000000000               0.000000000               0.000000000               0.000000000               0.000027653               0.002973148              -0.000025208              -0.000361273               0.001111464               0.000750191               0.000000000               0.000000000               0.000000000               0.000000000              -0.000001930               0.002968624              -0.000005941              -0.000371801               0.001113465               0.000741664               0.000000000               0.000000000               0.000000000               0.000000000               0.000796658               0.000913630              -0.000774698               0.000184541               0.000243026               0.000427567               0.000000000               0.000000000               0.000000000               0.000000000               0.000681590               0.001289057              -0.000844910               0.000094462               0.000398193               0.000492656               0.000000000               0.000000000               0.000000000               0.000000000               0.000504922               0.001782584              -0.000844924              -0.000033478               0.000605348               0.000571869               0.000000000               0.000000000               0.000000000               0.000000000               0.000425488               0.002075371              -0.000743035              -0.000099864               0.000725071               0.000625207               0.000000000               0.000000000               0.000000000               0.000000000               0.000375476               0.002269241              -0.000634582              -0.000142852               0.000804023               0.000661171               0.000000000               0.000000000               0.000000000               0.000000000               0.000335121               0.002412605              -0.000541894              -0.000175905               0.000862829               0.000686923               0.000000000               0.000000000               0.000000000               0.000000000               0.000298561               0.002515150              -0.000467156              -0.000202433               0.000905853               0.000703419               0.000000000               0.000000000               0.000000000               0.000000000               0.000266389               0.002590596              -0.000411111              -0.000223928               0.000938166               0.000714238               0.000000000               0.000000000               0.000000000               0.000000000               0.000243218               0.002656206              -0.000364528              -0.000240819               0.000965666               0.000724847               0.000000000               0.000000000               0.000000000               0.000000000               0.000227699               0.002718141              -0.000316424              -0.000254380               0.000990831               0.000736451               0.000000000               0.000000000               0.000000000               0.000000000               0.000215829               0.002782036              -0.000263234              -0.000266818               0.001016276               0.000749457               0.000000000               0.000000000               0.000000000               0.000000000               0.000198776               0.002846753              -0.000214181              -0.000281303               0.001042676               0.000761373               0.000000000               0.000000000               0.000000000               0.000000000               0.000173617               0.002897946              -0.000172056              -0.000297136               0.001065018               0.000767882               0.000000000               0.000000000               0.000000000               0.000000000               0.000142839               0.002933156              -0.000133611              -0.000313079               0.001082069               0.000768990               0.000000000               0.000000000               0.000000000               0.000000000               0.000102090               0.002951947              -0.000090815              -0.000330709               0.001094209               0.000763500               0.000000000               0.000000000               0.000000000               0.000000000               0.000050680               0.002964746              -0.000043213              -0.000351587               0.001105435               0.000753847               0.000000000               0.000000000               0.000000000               0.000000000               0.000007586               0.002962100              -0.000014128              -0.000367417               0.001109829               0.000742412               0.000000000               0.000000000               0.000000000               0.000000000               0.000608180               0.000581854              -0.000569732               0.000155334               0.000142171               0.000297505               0.000000000               0.000000000               0.000000000               0.000000000               0.000642172               0.000946219              -0.000709086               0.000122535               0.000274558               0.000397093               0.000000000               0.000000000               0.000000000               0.000000000               0.000574989               0.001423754              -0.000787108               0.000037650               0.000462030               0.000499680               0.000000000               0.000000000               0.000000000               0.000000000               0.000522336               0.001752057              -0.000730072              -0.000023132               0.000591723               0.000568592               0.000000000               0.000000000               0.000000000               0.000000000               0.000479247               0.001993422              -0.000644354              -0.000069461               0.000687621               0.000618160               0.000000000               0.000000000               0.000000000               0.000000000               0.000434335               0.002181561              -0.000562173              -0.000109820               0.000763786               0.000653966               0.000000000               0.000000000               0.000000000               0.000000000               0.000393751               0.002327008              -0.000494043              -0.000143219               0.000823401               0.000680182               0.000000000               0.000000000               0.000000000               0.000000000               0.000352158               0.002437598              -0.000440547              -0.000172640               0.000870071               0.000697431               0.000000000               0.000000000               0.000000000               0.000000000               0.000318043               0.002531224              -0.000395621              -0.000197137               0.000909445               0.000712309               0.000000000               0.000000000               0.000000000               0.000000000               0.000294314               0.002616786              -0.000348530              -0.000216730               0.000944497               0.000727767               0.000000000               0.000000000               0.000000000               0.000000000               0.000279019               0.002701393              -0.000295945              -0.000233041               0.000978136               0.000745094               0.000000000               0.000000000               0.000000000               0.000000000               0.000262554               0.002781922              -0.000245546              -0.000249282               0.001010392               0.000761110               0.000000000               0.000000000               0.000000000               0.000000000               0.000237968               0.002847137              -0.000204613              -0.000266654               0.001037921               0.000771267               0.000000000               0.000000000               0.000000000               0.000000000               0.000207584               0.002896926              -0.000165704              -0.000284271               0.001060389               0.000776118               0.000000000               0.000000000               0.000000000               0.000000000               0.000168229               0.002931078              -0.000116612              -0.000303298               0.001078115               0.000774817               0.000000000               0.000000000               0.000000000               0.000000000               0.000118618               0.002957069              -0.000058988              -0.000325151               0.001094063               0.000768912               0.000000000               0.000000000               0.000000000               0.000000000               0.000075075               0.002959353              -0.000024002              -0.000341765               0.001100363               0.000758598               0.000000000               0.000000000               0.000000000               0.000000000               0.000413757               0.000339922              -0.000382548               0.000112667               0.000075750               0.000188417               0.000000000               0.000000000               0.000000000               0.000000000               0.000591664               0.000659652              -0.000545761               0.000139416               0.000173410               0.000312825               0.000000000               0.000000000               0.000000000               0.000000000               0.000642325               0.001087855              -0.000663747               0.000104888               0.000327652               0.000432540               0.000000000               0.000000000               0.000000000               0.000000000               0.000627811               0.001430934              -0.000643715               0.000056561               0.000458119               0.000514681               0.000000000               0.000000000               0.000000000               0.000000000               0.000596128               0.001704235              -0.000583617               0.000010518               0.000564566               0.000575084               0.000000000               0.000000000               0.000000000               0.000000000               0.000554922               0.001929911              -0.000519670              -0.000033144               0.000654345               0.000621202               0.000000000               0.000000000               0.000000000               0.000000000               0.000510167               0.002112055              -0.000463699              -0.000072694               0.000728243               0.000655548               0.000000000               0.000000000               0.000000000               0.000000000               0.000461702               0.002251189              -0.000417334              -0.000108260               0.000786476               0.000678215               0.000000000               0.000000000               0.000000000               0.000000000               0.000415195               0.002373963              -0.000378774              -0.000141047               0.000838329               0.000697282               0.000000000               0.000000000               0.000000000               0.000000000               0.000378275               0.002490928              -0.000338252              -0.000169512               0.000886805               0.000717293               0.000000000               0.000000000               0.000000000               0.000000000               0.000354322               0.002600183              -0.000291974              -0.000192152               0.000930770               0.000738618               0.000000000               0.000000000               0.000000000               0.000000000               0.000336418               0.002696555              -0.000245441              -0.000210912               0.000969147               0.000758235               0.000000000               0.000000000               0.000000000               0.000000000               0.000312715               0.002780480              -0.000205980              -0.000230291               0.001003581               0.000773290               0.000000000               0.000000000               0.000000000               0.000000000               0.000282002               0.002850182              -0.000169970              -0.000250521               0.001033558               0.000783037               0.000000000               0.000000000               0.000000000               0.000000000               0.000252556               0.002903401              -0.000125573              -0.000268216               0.001057196               0.000788980               0.000000000               0.000000000               0.000000000               0.000000000               0.000223195               0.002945529              -0.000067305              -0.000284492               0.001076664               0.000792172               0.000000000               0.000000000               0.000000000               0.000000000               0.000196284               0.002957501              -0.000032099              -0.000296080               0.001084517               0.000788437               0.000000000               0.000000000               0.000000000               0.000000000               0.000238961               0.000176140              -0.000228723               0.000067592               0.000036182               0.000103774               0.000000000               0.000000000               0.000000000               0.000000000               0.000540227               0.000444381              -0.000368040               0.000147036               0.000099113               0.000246149               0.000000000               0.000000000               0.000000000               0.000000000               0.000698641               0.000815129              -0.000478952               0.000160097               0.000218341               0.000378438               0.000000000               0.000000000               0.000000000               0.000000000               0.000725876               0.001155347              -0.000481759               0.000127784               0.000342517               0.000470301               0.000000000               0.000000000               0.000000000               0.000000000               0.000707956               0.001445075              -0.000446364               0.000084848               0.000453404               0.000538252               0.000000000               0.000000000               0.000000000               0.000000000               0.000672023               0.001693892              -0.000403295               0.000040272               0.000551201               0.000591473               0.000000000               0.000000000               0.000000000               0.000000000               0.000623526               0.001900580              -0.000364068              -0.000003751               0.000634771               0.000631020               0.000000000               0.000000000               0.000000000               0.000000000               0.000570977               0.002072430              -0.000330879              -0.000044937               0.000705782               0.000660845               0.000000000               0.000000000               0.000000000               0.000000000               0.000516297               0.002227176              -0.000302185              -0.000084786               0.000770647               0.000685861               0.000000000               0.000000000               0.000000000               0.000000000               0.000464875               0.002369711              -0.000273813              -0.000121886               0.000830524               0.000708639               0.000000000               0.000000000               0.000000000               0.000000000               0.000428312               0.002499486              -0.000242016              -0.000151819               0.000883760               0.000731941               0.000000000               0.000000000               0.000000000               0.000000000               0.000402927               0.002614610              -0.000202950              -0.000175728               0.000930104               0.000754376               0.000000000               0.000000000               0.000000000               0.000000000               0.000378850               0.002718611              -0.000166530              -0.000197757               0.000972113               0.000774356               0.000000000               0.000000000               0.000000000               0.000000000               0.000358654               0.002806723              -0.000141221              -0.000216345               0.001007680               0.000791335               0.000000000               0.000000000               0.000000000               0.000000000               0.000345362               0.002874034              -0.000112817              -0.000229743               0.001034583               0.000804840               0.000000000               0.000000000               0.000000000               0.000000000               0.000339294               0.002927919              -0.000064839              -0.000238754               0.001055548               0.000816794               0.000000000               0.000000000               0.000000000               0.000000000               0.000333687               0.002950007              -0.000034130              -0.000243618               0.001064532               0.000820914               0.000000000               0.000000000               0.000000000               0.000000000               0.000113458               0.000082589              -0.000104180               0.000032223               0.000016788               0.000049011               0.000000000               0.000000000               0.000000000               0.000000000               0.000496506               0.000308112              -0.000184529               0.000147674               0.000053478               0.000201152               0.000000000               0.000000000               0.000000000               0.000000000               0.000733198               0.000633483              -0.000250854               0.000195762               0.000145905               0.000341667               0.000000000               0.000000000               0.000000000               0.000000000               0.000793524               0.000968027              -0.000258217               0.000176566               0.000263817               0.000440383               0.000000000               0.000000000               0.000000000               0.000000000               0.000784715               0.001263468              -0.000242822               0.000136333               0.000375708               0.000512041               0.000000000               0.000000000               0.000000000               0.000000000               0.000750959               0.001521244              -0.000220501               0.000091453               0.000476592               0.000568045               0.000000000               0.000000000               0.000000000               0.000000000               0.000703916               0.001749242              -0.000200559               0.000045313               0.000567970               0.000613283               0.000000000               0.000000000               0.000000000               0.000000000               0.000649410               0.001950668              -0.000185015              -0.000000305               0.000650318               0.000650013               0.000000000               0.000000000               0.000000000               0.000000000               0.000590948               0.002124555              -0.000169966              -0.000043964               0.000722833               0.000678869               0.000000000               0.000000000               0.000000000               0.000000000               0.000533477               0.002276561              -0.000156210              -0.000084516               0.000787018               0.000702502               0.000000000               0.000000000               0.000000000               0.000000000               0.000484259               0.002417317              -0.000140056              -0.000120567               0.000845953               0.000725386               0.000000000               0.000000000               0.000000000               0.000000000               0.000450180               0.002548918              -0.000113850              -0.000149797               0.000899563               0.000749766               0.000000000               0.000000000               0.000000000               0.000000000               0.000433757               0.002668623              -0.000091441              -0.000170919               0.000946505               0.000775587               0.000000000               0.000000000               0.000000000               0.000000000               0.000427751               0.002772803              -0.000081533              -0.000186193               0.000986323               0.000800130               0.000000000               0.000000000               0.000000000               0.000000000               0.000426019               0.002858507              -0.000069068              -0.000197556               0.001018678               0.000821122               0.000000000               0.000000000               0.000000000               0.000000000               0.000434381               0.002923093              -0.000040786              -0.000202493               0.001041852               0.000839359               0.000000000               0.000000000               0.000000000               0.000000000               0.000447283               0.002951337              -0.000021912              -0.000201186               0.001050831               0.000849645               0.000000000               0.000000000               0.000000000               0.000000000               0.000068133               0.000054346               0.000000000               0.000018756               0.000011863               0.000030619               0.000000000               0.000000000               0.000000000               0.000000000               0.000479199               0.000262859               0.000000000               0.000146841               0.000038672               0.000185513               0.000000000               0.000000000               0.000000000               0.000000000               0.000744682               0.000570655              -0.000000000               0.000207922               0.000120909               0.000328831               0.000000000               0.000000000               0.000000000               0.000000000               0.000815828               0.000902265               0.000000000               0.000193150               0.000236369               0.000429519               0.000000000               0.000000000               0.000000000               0.000000000               0.000809335               0.001197173              -0.000000000               0.000153852               0.000347770               0.000501622               0.000000000               0.000000000               0.000000000               0.000000000               0.000775955               0.001455279               0.000000000               0.000109072               0.000448731               0.000557803               0.000000000               0.000000000               0.000000000               0.000000000               0.000732219               0.001695416              -0.000000000               0.000062655               0.000544248               0.000606903               0.000000000               0.000000000               0.000000000               0.000000000               0.000678953               0.001910844              -0.000000000               0.000015752               0.000631691               0.000647443               0.000000000               0.000000000               0.000000000               0.000000000               0.000618557               0.002087034               0.000000000              -0.000028920               0.000705311               0.000676391               0.000000000               0.000000000               0.000000000               0.000000000               0.000559599               0.002238458               0.000000000              -0.000069957               0.000769464               0.000699507               0.000000000               0.000000000               0.000000000               0.000000000               0.000504337               0.002382746              -0.000000000              -0.000108717               0.000830480               0.000721763               0.000000000               0.000000000               0.000000000               0.000000000               0.000467997               0.002520564              -0.000000000              -0.000139571               0.000886703               0.000747132               0.000000000               0.000000000               0.000000000               0.000000000               0.000459252               0.002647759              -0.000000000              -0.000158750               0.000935494               0.000776744               0.000000000               0.000000000               0.000000000               0.000000000               0.000457935               0.002760369               0.000000000              -0.000173320               0.000977887               0.000804567               0.000000000               0.000000000               0.000000000               0.000000000               0.000457611               0.002857027              -0.000000000              -0.000185524               0.001014174               0.000828650               0.000000000               0.000000000               0.000000000               0.000000000               0.000470324               0.002928094              -0.000000000              -0.000189640               0.001039235               0.000849595               0.000000000               0.000000000               0.000000000               0.000000000               0.000491899               0.002958732              -0.000000000              -0.000185379               0.001048027               0.000862648               0.000000000               0.000000000               0.000000000               0.000000000               0.000000000               0.000000000               0.000000000               0.000000000               0.000000000               0.000000000               0.000000000               0.000000000               0.000000000               0.000000000               0.000000000               0.000000000               0.000000000               0.000000000               0.000000000               0.000000000               0.000000000               0.000000000               0.000000000               0.000000000               0.000000000               0.000000000               0.000000000               0.000000000               0.000000000               0.000000000               0.000000000               0.000000000               0.000000000               0.000000000               0.000000000               0.000000000               0.000000000               0.000000000               0.000000000               0.000000000               0.000000000               0.000000000               0.000000000               0.000000000               0.000000000               0.000000000               0.000000000               0.000000000               0.000000000               0.000000000               0.000000000               0.000000000               0.000000000               0.000000000               0.000000000               0.000000000               0.000000000               0.000000000               0.000000000               0.000000000               0.000000000               0.000000000               0.000000000               0.000000000               0.000000000               0.000000000               0.000000000               0.000000000               0.000000000               0.000000000               0.000000000               0.000000000               0.000000000               0.000000000               0.000000000               0.000000000               0.000000000               0.000000000               0.000000000               0.000000000               0.000000000               0.000000000               0.000000000               0.000000000               0.000000000               0.000000000               0.000000000               0.000000000               0.000000000               0.000000000               0.000000000               0.000000000               0.000000000               0.000000000               0.000000000               0.000000000               0.000000000               0.000000000               0.000000000               0.000000000               0.000000000               0.000000000               0.000000000               0.000000000               0.000000000               0.000000000               0.000000000               0.000000000               0.000000000               0.000000000               0.000000000               0.000000000               0.000000000               0.000000000               0.000000000               0.000000000               0.000000000               0.000000000               0.000000000               0.000000000               0.000000000               0.000000000               0.000000000               0.000000000               0.000000000               0.000000000               0.000000000               0.000000000               0.000000000               0.000000000               0.000000000               0.000000000               0.000000000               0.000000000               0.000000000               0.000000000               0.000000000               0.000000000               0.000000000               0.000000000               0.000000000               0.000000000               0.000000000               0.000000000               0.000000000               0.000000000               0.000000000               0.000000000               0.000000000               0.000000000               0.000000000               0.000000000               0.000000000               0.000000000               0.000000000               0.000000000               0.000000000               0.000000000               0.000000000               0.000000000               0.000000000               0.000000000               0.000000000               0.000000000               0.000000000               0.000000000               0.000000000               0.000000000               0.000000000               0.000000000               0.000000000               0.000000000               0.000000000               0.000000000               0.000526615               0.005751027               0.000446431              -0.000521397               0.002090789               0.001569392               0.000000000               0.000000000               0.000000000               0.000000000               0.000560496               0.004792387               0.000292391              -0.000388862               0.001727067               0.001338205               0.000000000               0.000000000               0.000000000               0.000000000               0.000756059               0.004026193               0.000130315              -0.000219752               0.001415301               0.001195550               0.000000000               0.000000000               0.000000000               0.000000000               0.000774631               0.003604335               0.000051709              -0.000160055               0.001254784               0.001094730               0.000000000               0.000000000               0.000000000               0.000000000               0.000725053               0.003355453               0.000013452              -0.000147536               0.001167652               0.001020116               0.000000000               0.000000000               0.000000000               0.000000000               0.000655346               0.003203608              -0.000004799              -0.000154696               0.001119424               0.000964728               0.000000000               0.000000000               0.000000000               0.000000000               0.000583804               0.003108858              -0.000013851              -0.000169680               0.001092836               0.000923156               0.000000000               0.000000000               0.000000000               0.000000000               0.000513984               0.003049139              -0.000017884              -0.000188398               0.001079169               0.000890771               0.000000000               0.000000000               0.000000000               0.000000000               0.000449689               0.003013786              -0.000019170              -0.000208089               0.001073948               0.000865859               0.000000000               0.000000000               0.000000000               0.000000000               0.000390165               0.002995350              -0.000019618              -0.000228106               0.001074475               0.000846369               0.000000000               0.000000000               0.000000000               0.000000000               0.000335340               0.002990347              -0.000017584              -0.000248040               0.001079452               0.000831412               0.000000000               0.000000000               0.000000000               0.000000000               0.000283736               0.002990068              -0.000014669              -0.000267357               0.001085798               0.000818441               0.000000000               0.000000000               0.000000000               0.000000000               0.000232767               0.002994669              -0.000014671              -0.000287045               0.001093895               0.000806850               0.000000000               0.000000000               0.000000000               0.000000000               0.000178879               0.003004078              -0.000014512              -0.000308429               0.001104159               0.000795730               0.000000000               0.000000000               0.000000000               0.000000000               0.000120374               0.003015581              -0.000012247              -0.000331807               0.001115786               0.000783979               0.000000000               0.000000000               0.000000000               0.000000000               0.000060019               0.003026638              -0.000007256              -0.000355822               0.001127476               0.000771655               0.000000000               0.000000000               0.000000000               0.000000000               0.000032497               0.003037434              -0.000002710              -0.000367492               0.001134965               0.000767473               0.000000000               0.000000000               0.000000000               0.000000000               0.000617997               0.005476496               0.000846564              -0.000452813               0.001976418               0.001523605               0.000000000               0.000000000               0.000000000               0.000000000               0.000592552               0.004593242               0.000553957              -0.000351948               0.001648381               0.001296434               0.000000000               0.000000000               0.000000000               0.000000000               0.000725755               0.003916831               0.000250331              -0.000217445               0.001378079               0.001160634               0.000000000               0.000000000               0.000000000               0.000000000               0.000715128               0.003542046               0.000107203              -0.000174582               0.001238864               0.001064282               0.000000000               0.000000000               0.000000000               0.000000000               0.000655274               0.003316480               0.000036511              -0.000168832               0.001161760               0.000992928               0.000000000               0.000000000               0.000000000               0.000000000               0.000586719               0.003179047               0.000001274              -0.000177361               0.001118792               0.000941431               0.000000000               0.000000000               0.000000000               0.000000000               0.000519133               0.003094880              -0.000015236              -0.000192185               0.001095678               0.000903493               0.000000000               0.000000000               0.000000000               0.000000000               0.000452378               0.003042813              -0.000021859              -0.000210709               0.001084497               0.000873788               0.000000000               0.000000000               0.000000000               0.000000000               0.000391480               0.003012755              -0.000023278              -0.000229789               0.001080838               0.000851049               0.000000000               0.000000000               0.000000000               0.000000000               0.000336272               0.002996874              -0.000024884              -0.000248507               0.001081784               0.000833277               0.000000000               0.000000000               0.000000000               0.000000000               0.000287064               0.002991384              -0.000022438              -0.000266273               0.001085876               0.000819602               0.000000000               0.000000000               0.000000000               0.000000000               0.000243794               0.002992537              -0.000016744              -0.000282644               0.001091717               0.000809073               0.000000000               0.000000000               0.000000000               0.000000000               0.000200312               0.002997789              -0.000016619              -0.000299606               0.001099122               0.000799516               0.000000000               0.000000000               0.000000000               0.000000000               0.000153745               0.003008667              -0.000018127              -0.000318428               0.001109022               0.000790593               0.000000000               0.000000000               0.000000000               0.000000000               0.000102776               0.003025522              -0.000016160              -0.000339648               0.001121713               0.000782065               0.000000000               0.000000000               0.000000000               0.000000000               0.000049963               0.003046620              -0.000010155              -0.000362091               0.001136227               0.000774136               0.000000000               0.000000000               0.000000000               0.000000000               0.000027889               0.003066404              -0.000004663              -0.000372841               0.001146405               0.000773564               0.000000000               0.000000000               0.000000000               0.000000000               0.000747745               0.005051093               0.001166875              -0.000350982               0.001800675               0.001449692               0.000000000               0.000000000               0.000000000               0.000000000               0.000632639               0.004294872               0.000765030              -0.000299619               0.001531483               0.001231863               0.000000000               0.000000000               0.000000000               0.000000000               0.000673021               0.003754940               0.000353657              -0.000216984               0.001323962               0.001106978               0.000000000               0.000000000               0.000000000               0.000000000               0.000630734               0.003450925               0.000166115              -0.000194840               0.001215243               0.001020404               0.000000000               0.000000000               0.000000000               0.000000000               0.000563535               0.003265790               0.000073969              -0.000196898               0.001154218               0.000957321               0.000000000               0.000000000               0.000000000               0.000000000               0.000494236               0.003149637               0.000027553              -0.000208366               0.001119324               0.000910958               0.000000000               0.000000000               0.000000000               0.000000000               0.000430399               0.003077898               0.000005918              -0.000223337               0.001100401               0.000877064               0.000000000               0.000000000               0.000000000               0.000000000               0.000371158               0.003034665              -0.000002588              -0.000240148               0.001091594               0.000851446               0.000000000               0.000000000               0.000000000               0.000000000               0.000319588               0.003008264              -0.000005576              -0.000256187               0.001088140               0.000831954               0.000000000               0.000000000               0.000000000               0.000000000               0.000274825               0.002994226              -0.000007363              -0.000271218               0.001088471               0.000817253               0.000000000               0.000000000               0.000000000               0.000000000               0.000231447               0.002986570              -0.000005975              -0.000286528               0.001091023               0.000804495               0.000000000               0.000000000               0.000000000               0.000000000               0.000191694               0.002987248              -0.000000113              -0.000301520               0.001096246               0.000794726               0.000000000               0.000000000               0.000000000               0.000000000               0.000153825               0.002991545               0.000000122              -0.000316258               0.001102591               0.000786333               0.000000000               0.000000000               0.000000000               0.000000000               0.000115649               0.003001625              -0.000005414              -0.000331834               0.001111143               0.000779309               0.000000000               0.000000000               0.000000000               0.000000000               0.000076097               0.003019252              -0.000008653              -0.000348869               0.001122697               0.000773828               0.000000000               0.000000000               0.000000000               0.000000000               0.000036394               0.003042485              -0.000006809              -0.000366662               0.001136372               0.000769710               0.000000000               0.000000000               0.000000000               0.000000000               0.000021068               0.003063454              -0.000002418              -0.000375030               0.001146151               0.000771121               0.000000000               0.000000000               0.000000000               0.000000000               0.000889024               0.004526334               0.001383831              -0.000232409               0.001586232               0.001353824               0.000000000               0.000000000               0.000000000               0.000000000               0.000672689               0.003934312               0.000915598              -0.000239531               0.001391268               0.001151737               0.000000000               0.000000000               0.000000000               0.000000000               0.000606913               0.003562848               0.000440626              -0.000217763               0.001260192               0.001042429               0.000000000               0.000000000               0.000000000               0.000000000               0.000532911               0.003339954               0.000229973              -0.000217652               0.001185858               0.000968206               0.000000000               0.000000000               0.000000000               0.000000000               0.000463117               0.003197905               0.000127341              -0.000226069               0.001141314               0.000915245               0.000000000               0.000000000               0.000000000               0.000000000               0.000396642               0.003105264               0.000075002              -0.000239417               0.001114883               0.000875466               0.000000000               0.000000000               0.000000000               0.000000000               0.000338476               0.003046645               0.000048066              -0.000253901               0.001100172               0.000846271               0.000000000               0.000000000               0.000000000               0.000000000               0.000289498               0.003008950               0.000035174              -0.000267556               0.001092159               0.000824602               0.000000000               0.000000000               0.000000000               0.000000000               0.000247143               0.002985084               0.000029890              -0.000280456               0.001088503               0.000808047               0.000000000               0.000000000               0.000000000               0.000000000               0.000209568               0.002970461               0.000026756              -0.000292719               0.001087717               0.000794998               0.000000000               0.000000000               0.000000000               0.000000000               0.000174400               0.002962104               0.000025647              -0.000304862               0.001088979               0.000784116               0.000000000               0.000000000               0.000000000               0.000000000               0.000140632               0.002961776               0.000028908              -0.000317484               0.001093077               0.000775593               0.000000000               0.000000000               0.000000000               0.000000000               0.000108348               0.002967234               0.000027296              -0.000330273               0.001099159               0.000768886               0.000000000               0.000000000               0.000000000               0.000000000               0.000077872               0.002976651               0.000015294              -0.000342879               0.001106500               0.000763621               0.000000000               0.000000000               0.000000000               0.000000000               0.000048512               0.002992113               0.000004494              -0.000355821               0.001115968               0.000760147               0.000000000               0.000000000               0.000000000               0.000000000               0.000021650               0.003011411              -0.000000021              -0.000368307               0.001126562               0.000758256               0.000000000               0.000000000               0.000000000               0.000000000               0.000013051               0.003028020               0.000000724              -0.000373607               0.001133866               0.000760258               0.000000000               0.000000000               0.000000000               0.000000000               0.001004500               0.003949437               0.001493119              -0.000116993               0.001355463               0.001238470               0.000000000               0.000000000               0.000000000               0.000000000               0.000698133               0.003545862               0.001007156              -0.000181433               0.001242420               0.001060986               0.000000000               0.000000000               0.000000000               0.000000000               0.000534669               0.003353791               0.000514919              -0.000218723               0.001190827               0.000972104               0.000000000               0.000000000               0.000000000               0.000000000               0.000436295               0.003207658               0.000299055              -0.000237346               0.001148324               0.000910978               0.000000000               0.000000000               0.000000000               0.000000000               0.000366775               0.003106857               0.000191338              -0.000250816               0.001119214               0.000868398               0.000000000               0.000000000               0.000000000               0.000000000               0.000309685               0.003039452               0.000132896              -0.000263799               0.001101073               0.000837275               0.000000000               0.000000000               0.000000000               0.000000000               0.000262142               0.002994879               0.000100457              -0.000276056               0.001090302               0.000814246               0.000000000               0.000000000               0.000000000               0.000000000               0.000222362               0.002963602               0.000083218              -0.000287064               0.001083545               0.000796481               0.000000000               0.000000000               0.000000000               0.000000000               0.000187846               0.002944115               0.000074274              -0.000297571               0.001080552               0.000782981               0.000000000               0.000000000               0.000000000               0.000000000               0.000158026               0.002932613               0.000068645              -0.000307316               0.001079966               0.000772650               0.000000000               0.000000000               0.000000000               0.000000000               0.000128795               0.002926320               0.000061191              -0.000317491               0.001081260               0.000763769               0.000000000               0.000000000               0.000000000               0.000000000               0.000100879               0.002929988               0.000055410              -0.000328418               0.001086125               0.000757707               0.000000000               0.000000000               0.000000000               0.000000000               0.000073810               0.002940721               0.000048564              -0.000339910               0.001093534               0.000753624               0.000000000               0.000000000               0.000000000               0.000000000               0.000048437               0.002953527               0.000031880              -0.000351026               0.001101508               0.000750482               0.000000000               0.000000000               0.000000000               0.000000000               0.000028249               0.002967857               0.000014017              -0.000360388               0.001109405               0.000749017               0.000000000               0.000000000               0.000000000               0.000000000               0.000012368               0.002982914               0.000004420              -0.000368225               0.001117037               0.000748811               0.000000000               0.000000000               0.000000000               0.000000000               0.000007618               0.002992914               0.000002925              -0.000371257               0.001121380               0.000750124               0.000000000               0.000000000               0.000000000               0.000000000               0.001076469               0.003356335               0.001505770              -0.000015868               0.001124056               0.001108188               0.000000000               0.000000000               0.000000000               0.000000000               0.000705157               0.003153466               0.001048252              -0.000129750               0.001094395               0.000964644               0.000000000               0.000000000               0.000000000               0.000000000               0.000463014               0.003136867               0.000579804              -0.000218478               0.001118438               0.000899960               0.000000000               0.000000000               0.000000000               0.000000000               0.000355559               0.003065557               0.000370217              -0.000249860               0.001105129               0.000855269               0.000000000               0.000000000               0.000000000               0.000000000               0.000293879               0.003007120               0.000258321              -0.000265685               0.001090925               0.000825240               0.000000000               0.000000000               0.000000000               0.000000000               0.000247293               0.002964436               0.000194254              -0.000277819               0.001080742               0.000802923               0.000000000               0.000000000               0.000000000               0.000000000               0.000208060               0.002931527               0.000156876              -0.000288418               0.001073305               0.000784887               0.000000000               0.000000000               0.000000000               0.000000000               0.000176366               0.002907048               0.000133694              -0.000297243               0.001068087               0.000770844               0.000000000               0.000000000               0.000000000               0.000000000               0.000149579               0.002894737               0.000116901              -0.000305749               0.001066819               0.000761070               0.000000000               0.000000000               0.000000000               0.000000000               0.000128180               0.002892547               0.000103881              -0.000313500               0.001068673               0.000755173               0.000000000               0.000000000               0.000000000               0.000000000               0.000108874               0.002899588               0.000088313              -0.000321620               0.001073726               0.000752106               0.000000000               0.000000000               0.000000000               0.000000000               0.000086896               0.002911969               0.000073231              -0.000331410               0.001081117               0.000749707               0.000000000               0.000000000               0.000000000               0.000000000               0.000062247               0.002928882               0.000060470              -0.000342767               0.001090540               0.000747773               0.000000000               0.000000000               0.000000000               0.000000000               0.000039338               0.002946721               0.000041859              -0.000353588               0.001100093               0.000746506               0.000000000               0.000000000               0.000000000               0.000000000               0.000022675               0.002960369               0.000021940              -0.000361542               0.001107294               0.000745752               0.000000000               0.000000000               0.000000000               0.000000000               0.000011116               0.002967240               0.000009642              -0.000366735               0.001111315               0.000744580               0.000000000               0.000000000               0.000000000               0.000000000               0.000006684               0.002969513               0.000006197              -0.000368682               0.001112722               0.000744040               0.000000000               0.000000000               0.000000000               0.000000000               0.001101147               0.002784644               0.001434106               0.000064847               0.000906589               0.000971436               0.000000000               0.000000000               0.000000000               0.000000000               0.000693184               0.002780125               0.001047307              -0.000087573               0.000955890               0.000868317               0.000000000               0.000000000               0.000000000               0.000000000               0.000403953               0.002923037               0.000636728              -0.000213897               0.001045635               0.000831738               0.000000000               0.000000000               0.000000000               0.000000000               0.000300271               0.002924184               0.000437403              -0.000252921               0.001059025               0.000806104               0.000000000               0.000000000               0.000000000               0.000000000               0.000246569               0.002905676               0.000321452              -0.000270746               0.001058798               0.000788052               0.000000000               0.000000000               0.000000000               0.000000000               0.000209606               0.002885342               0.000251822              -0.000282065               0.001055793               0.000773728               0.000000000               0.000000000               0.000000000               0.000000000               0.000177028               0.002866029               0.000208203              -0.000291867               0.001052623               0.000760755               0.000000000               0.000000000               0.000000000               0.000000000               0.000153077               0.002855393               0.000175634              -0.000299520               0.001051628               0.000752108               0.000000000               0.000000000               0.000000000               0.000000000               0.000135502               0.002857281               0.000147632              -0.000306346               0.001054533               0.000748187               0.000000000               0.000000000               0.000000000               0.000000000               0.000120122               0.002869011               0.000124378              -0.000313580               0.001060854               0.000747274               0.000000000               0.000000000               0.000000000               0.000000000               0.000104890               0.002890381               0.000103010              -0.000321963               0.001070772               0.000748808               0.000000000               0.000000000               0.000000000               0.000000000               0.000085364               0.002914031               0.000082859              -0.000332241               0.001082081               0.000749840               0.000000000               0.000000000               0.000000000               0.000000000               0.000062759               0.002937981               0.000064655              -0.000343712               0.001093888               0.000750176               0.000000000               0.000000000               0.000000000               0.000000000               0.000040990               0.002956934               0.000044665              -0.000354245               0.001103717               0.000749472               0.000000000               0.000000000               0.000000000               0.000000000               0.000025986               0.002965567               0.000025377              -0.000360950               0.001108829               0.000747879               0.000000000               0.000000000               0.000000000               0.000000000               0.000013336               0.002963640               0.000011451              -0.000365453               0.001109688               0.000744235               0.000000000               0.000000000               0.000000000               0.000000000               0.000005586               0.002959206               0.000005066              -0.000367805               0.001108994               0.000741189               0.000000000               0.000000000               0.000000000               0.000000000               0.001095248               0.002280332               0.001306421               0.000125674               0.000718211               0.000843885               0.000000000               0.000000000               0.000000000               0.000000000               0.000685620               0.002443355               0.001026767              -0.000048313               0.000830548               0.000782235               0.000000000               0.000000000               0.000000000               0.000000000               0.000376688               0.002728867               0.000701036              -0.000199850               0.000976230               0.000776380               0.000000000               0.000000000               0.000000000               0.000000000               0.000281000               0.002802784               0.000509352              -0.000244973               0.001015910               0.000770937               0.000000000               0.000000000               0.000000000               0.000000000               0.000230625               0.002822980               0.000389523              -0.000266388               0.001029780               0.000763392               0.000000000               0.000000000               0.000000000               0.000000000               0.000197631               0.002827294               0.000312817              -0.000279299               0.001035522               0.000756222               0.000000000               0.000000000               0.000000000               0.000000000               0.000172023               0.002826482               0.000258808              -0.000288801               0.001038418               0.000749617               0.000000000               0.000000000               0.000000000               0.000000000               0.000153776               0.002832306               0.000216368              -0.000296371               0.001042883               0.000746511               0.000000000               0.000000000               0.000000000               0.000000000               0.000142668               0.002845408               0.000178476              -0.000302175               0.001049185               0.000747010               0.000000000               0.000000000               0.000000000               0.000000000               0.000131057               0.002866587               0.000146664              -0.000309176               0.001058578               0.000749402               0.000000000               0.000000000               0.000000000               0.000000000               0.000119138               0.002898404               0.000118076              -0.000317623               0.001071999               0.000754376               0.000000000               0.000000000               0.000000000               0.000000000               0.000103199               0.002932953               0.000091394              -0.000327919               0.001086947               0.000759029               0.000000000               0.000000000               0.000000000               0.000000000               0.000081174               0.002961167               0.000068462              -0.000339705               0.001100281               0.000760576               0.000000000               0.000000000               0.000000000               0.000000000               0.000057191               0.002977756               0.000047633              -0.000350772               0.001109499               0.000758728               0.000000000               0.000000000               0.000000000               0.000000000               0.000038415               0.002981089               0.000027465              -0.000358230               0.001113096               0.000754867               0.000000000               0.000000000               0.000000000               0.000000000               0.000019998               0.002974420               0.000010438              -0.000364302               0.001112898               0.000748595               0.000000000               0.000000000               0.000000000               0.000000000               0.000006422               0.002966841               0.000002085              -0.000368446               0.001111752               0.000743306               0.000000000               0.000000000               0.000000000               0.000000000               0.001050578               0.001787870               0.001153984               0.000170480               0.000539123               0.000709604               0.000000000               0.000000000               0.000000000               0.000000000               0.000693854               0.002053793               0.000998647               0.000003470               0.000683434               0.000686904               0.000000000               0.000000000               0.000000000               0.000000000               0.000392031               0.002447983               0.000779178              -0.000158987               0.000868982               0.000709995               0.000000000               0.000000000               0.000000000               0.000000000               0.000297422               0.002603375               0.000602621              -0.000213888               0.000939079               0.000725191               0.000000000               0.000000000               0.000000000               0.000000000               0.000251416               0.002678129               0.000478854              -0.000240485               0.000972862               0.000732378               0.000000000               0.000000000               0.000000000               0.000000000               0.000217495               0.002723012               0.000390746              -0.000258816               0.000993933               0.000735118               0.000000000               0.000000000               0.000000000               0.000000000               0.000191264               0.002750582               0.000325564              -0.000272098               0.001007551               0.000735453               0.000000000               0.000000000               0.000000000               0.000000000               0.000170722               0.002771989               0.000275238              -0.000282477               0.001018146               0.000735669               0.000000000               0.000000000               0.000000000               0.000000000               0.000159989               0.002795285               0.000232775              -0.000289414               0.001028224               0.000738810               0.000000000               0.000000000               0.000000000               0.000000000               0.000154121               0.002826699               0.000193775              -0.000295541               0.001040737               0.000745196               0.000000000               0.000000000               0.000000000               0.000000000               0.000143796               0.002868803               0.000155342              -0.000304676               0.001057817               0.000753141               0.000000000               0.000000000               0.000000000               0.000000000               0.000127856               0.002912874               0.000119733              -0.000316162               0.001076336               0.000760173               0.000000000               0.000000000               0.000000000               0.000000000               0.000105450               0.002948077               0.000089260              -0.000328965               0.001092337               0.000763372               0.000000000               0.000000000               0.000000000               0.000000000               0.000077945               0.002969096               0.000062887              -0.000341907               0.001103658               0.000761751               0.000000000               0.000000000               0.000000000               0.000000000               0.000048548               0.002975776               0.000036958              -0.000353766               0.001109837               0.000756072               0.000000000               0.000000000               0.000000000               0.000000000               0.000020956               0.002975867               0.000013271              -0.000364124               0.001113320               0.000749196               0.000000000               0.000000000               0.000000000               0.000000000               0.000003111               0.002972171               0.000000874              -0.000370354               0.001114165               0.000743811               0.000000000               0.000000000               0.000000000               0.000000000               0.000949598               0.001324222               0.000976120               0.000190569               0.000377880               0.000568448               0.000000000               0.000000000               0.000000000               0.000000000               0.000699526               0.001665207               0.000943618               0.000054170               0.000537006               0.000591176               0.000000000               0.000000000               0.000000000               0.000000000               0.000441554               0.002133204               0.000839134              -0.000101069               0.000744750               0.000643682               0.000000000               0.000000000               0.000000000               0.000000000               0.000348573               0.002365321               0.000694116              -0.000164950               0.000843416               0.000678465               0.000000000               0.000000000               0.000000000               0.000000000               0.000298700               0.002500966               0.000571975              -0.000200608               0.000900516               0.000699908               0.000000000               0.000000000               0.000000000               0.000000000               0.000262287               0.002593425               0.000476948              -0.000225820               0.000939740               0.000713919               0.000000000               0.000000000               0.000000000               0.000000000               0.000230956               0.002655852               0.000403515              -0.000245373               0.000967066               0.000721693               0.000000000               0.000000000               0.000000000               0.000000000               0.000206658               0.002700899               0.000348178              -0.000260115               0.000986996               0.000726881               0.000000000               0.000000000               0.000000000               0.000000000               0.000191458               0.002739350               0.000303601              -0.000270621               0.001003315               0.000732693               0.000000000               0.000000000               0.000000000               0.000000000               0.000183930               0.002783147               0.000258556              -0.000278919               0.001020679               0.000741761               0.000000000               0.000000000               0.000000000               0.000000000               0.000174575               0.002835979               0.000210235              -0.000289031               0.001041661               0.000752629               0.000000000               0.000000000               0.000000000               0.000000000               0.000157968               0.002888736               0.000165900              -0.000301853               0.001063520               0.000761667               0.000000000               0.000000000               0.000000000               0.000000000               0.000134182               0.002929031               0.000127742              -0.000315810               0.001081604               0.000765794               0.000000000               0.000000000               0.000000000               0.000000000               0.000102972               0.002953711               0.000093584              -0.000330599               0.001094760               0.000764161               0.000000000               0.000000000               0.000000000               0.000000000               0.000067087               0.002966680               0.000058829              -0.000345677               0.001104109               0.000758433               0.000000000               0.000000000               0.000000000               0.000000000               0.000027653               0.002973148               0.000025208              -0.000361273               0.001111464               0.000750191               0.000000000               0.000000000               0.000000000               0.000000000              -0.000001930               0.002968624               0.000005941              -0.000371801               0.001113465               0.000741664               0.000000000               0.000000000               0.000000000               0.000000000               0.000796658               0.000913630               0.000774698               0.000184541               0.000243026               0.000427567               0.000000000               0.000000000               0.000000000               0.000000000               0.000681590               0.001289057               0.000844910               0.000094462               0.000398193               0.000492656               0.000000000               0.000000000               0.000000000               0.000000000               0.000504922               0.001782584               0.000844924              -0.000033478               0.000605348               0.000571869               0.000000000               0.000000000               0.000000000               0.000000000               0.000425488               0.002075371               0.000743035              -0.000099864               0.000725071               0.000625207               0.000000000               0.000000000               0.000000000               0.000000000               0.000375476               0.002269241               0.000634582              -0.000142852               0.000804023               0.000661171               0.000000000               0.000000000               0.000000000               0.000000000               0.000335121               0.002412605               0.000541894              -0.000175905               0.000862829               0.000686923               0.000000000               0.000000000               0.000000000               0.000000000               0.000298561               0.002515150               0.000467156              -0.000202433               0.000905853               0.000703419               0.000000000               0.000000000               0.000000000               0.000000000               0.000266389               0.002590596               0.000411111              -0.000223928               0.000938166               0.000714238               0.000000000               0.000000000               0.000000000               0.000000000               0.000243218               0.002656206               0.000364528              -0.000240819               0.000965666               0.000724847               0.000000000               0.000000000               0.000000000               0.000000000               0.000227699               0.002718141               0.000316424              -0.000254380               0.000990831               0.000736451               0.000000000               0.000000000               0.000000000               0.000000000               0.000215829               0.002782036               0.000263234              -0.000266818               0.001016276               0.000749457               0.000000000               0.000000000               0.000000000               0.000000000               0.000198776               0.002846753               0.000214181              -0.000281303               0.001042676               0.000761373               0.000000000               0.000000000               0.000000000               0.000000000               0.000173617               0.002897946               0.000172056              -0.000297136               0.001065018               0.000767882               0.000000000               0.000000000               0.000000000               0.000000000               0.000142839               0.002933156               0.000133611              -0.000313079               0.001082069               0.000768990               0.000000000               0.000000000               0.000000000               0.000000000               0.000102090               0.002951947               0.000090815              -0.000330709               0.001094209               0.000763500               0.000000000               0.000000000               0.000000000               0.000000000               0.000050680               0.002964746               0.000043213              -0.000351587               0.001105435               0.000753847               0.000000000               0.000000000               0.000000000               0.000000000               0.000007586               0.002962100               0.000014128              -0.000367417               0.001109829               0.000742412               0.000000000               0.000000000               0.000000000               0.000000000               0.000608180               0.000581854               0.000569732               0.000155334               0.000142171               0.000297505               0.000000000               0.000000000               0.000000000               0.000000000               0.000642172               0.000946219               0.000709086               0.000122535               0.000274558               0.000397093               0.000000000               0.000000000               0.000000000               0.000000000               0.000574989               0.001423754               0.000787108               0.000037650               0.000462030               0.000499680               0.000000000               0.000000000               0.000000000               0.000000000               0.000522336               0.001752057               0.000730072              -0.000023132               0.000591723               0.000568592               0.000000000               0.000000000               0.000000000               0.000000000               0.000479247               0.001993422               0.000644354              -0.000069461               0.000687621               0.000618160               0.000000000               0.000000000               0.000000000               0.000000000               0.000434335               0.002181561               0.000562173              -0.000109820               0.000763786               0.000653966               0.000000000               0.000000000               0.000000000               0.000000000               0.000393751               0.002327008               0.000494043              -0.000143219               0.000823401               0.000680182               0.000000000               0.000000000               0.000000000               0.000000000               0.000352158               0.002437598               0.000440547              -0.000172640               0.000870071               0.000697431               0.000000000               0.000000000               0.000000000               0.000000000               0.000318043               0.002531224               0.000395621              -0.000197137               0.000909445               0.000712309               0.000000000               0.000000000               0.000000000               0.000000000               0.000294314               0.002616786               0.000348530              -0.000216730               0.000944497               0.000727767               0.000000000               0.000000000               0.000000000               0.000000000               0.000279019               0.002701393               0.000295945              -0.000233041               0.000978136               0.000745094               0.000000000               0.000000000               0.000000000               0.000000000               0.000262554               0.002781922               0.000245546              -0.000249282               0.001010392               0.000761110               0.000000000               0.000000000               0.000000000               0.000000000               0.000237968               0.002847137               0.000204613              -0.000266654               0.001037921               0.000771267               0.000000000               0.000000000               0.000000000               0.000000000               0.000207584               0.002896926               0.000165704              -0.000284271               0.001060389               0.000776118               0.000000000               0.000000000               0.000000000               0.000000000               0.000168229               0.002931078               0.000116612              -0.000303298               0.001078115               0.000774817               0.000000000               0.000000000               0.000000000               0.000000000               0.000118618               0.002957069               0.000058988              -0.000325151               0.001094063               0.000768912               0.000000000               0.000000000               0.000000000               0.000000000               0.000075075               0.002959353               0.000024002              -0.000341765               0.001100363               0.000758598               0.000000000               0.000000000               0.000000000               0.000000000               0.000413757               0.000339922               0.000382548               0.000112667               0.000075750               0.000188417               0.000000000               0.000000000               0.000000000               0.000000000               0.000591664               0.000659652               0.000545761               0.000139416               0.000173410               0.000312825               0.000000000               0.000000000               0.000000000               0.000000000               0.000642325               0.001087855               0.000663747               0.000104888               0.000327652               0.000432540               0.000000000               0.000000000               0.000000000               0.000000000               0.000627811               0.001430934               0.000643715               0.000056561               0.000458119               0.000514681               0.000000000               0.000000000               0.000000000               0.000000000               0.000596128               0.001704235               0.000583617               0.000010518               0.000564566               0.000575084               0.000000000               0.000000000               0.000000000               0.000000000               0.000554922               0.001929911               0.000519670              -0.000033144               0.000654345               0.000621202               0.000000000               0.000000000               0.000000000               0.000000000               0.000510167               0.002112055               0.000463699              -0.000072694               0.000728243               0.000655548               0.000000000               0.000000000               0.000000000               0.000000000               0.000461702               0.002251189               0.000417334              -0.000108260               0.000786476               0.000678215               0.000000000               0.000000000               0.000000000               0.000000000               0.000415195               0.002373963               0.000378774              -0.000141047               0.000838329               0.000697282               0.000000000               0.000000000               0.000000000               0.000000000               0.000378275               0.002490928               0.000338252              -0.000169512               0.000886805               0.000717293               0.000000000               0.000000000               0.000000000               0.000000000               0.000354322               0.002600183               0.000291974              -0.000192152               0.000930770               0.000738618               0.000000000               0.000000000               0.000000000               0.000000000               0.000336418               0.002696555               0.000245441              -0.000210912               0.000969147               0.000758235               0.000000000               0.000000000               0.000000000               0.000000000               0.000312715               0.002780480               0.000205980              -0.000230291               0.001003581               0.000773290               0.000000000               0.000000000               0.000000000               0.000000000               0.000282002               0.002850182               0.000169970              -0.000250521               0.001033558               0.000783037               0.000000000               0.000000000               0.000000000               0.000000000               0.000252556               0.002903401               0.000125573              -0.000268216               0.001057196               0.000788980               0.000000000               0.000000000               0.000000000               0.000000000               0.000223195               0.002945529               0.000067305              -0.000284492               0.001076664               0.000792172               0.000000000               0.000000000               0.000000000               0.000000000               0.000196284               0.002957501               0.000032099              -0.000296080               0.001084517               0.000788437               0.000000000               0.000000000               0.000000000               0.000000000               0.000238961               0.000176140               0.000228723               0.000067592               0.000036182               0.000103774               0.000000000               0.000000000               0.000000000               0.000000000               0.000540227               0.000444381               0.000368040               0.000147036               0.000099113               0.000246149               0.000000000               0.000000000               0.000000000               0.000000000               0.000698641               0.000815129               0.000478952               0.000160097               0.000218341               0.000378438               0.000000000               0.000000000               0.000000000               0.000000000               0.000725876               0.001155347               0.000481759               0.000127784               0.000342517               0.000470301               0.000000000               0.000000000               0.000000000               0.000000000               0.000707956               0.001445075               0.000446364               0.000084848               0.000453404               0.000538252               0.000000000               0.000000000               0.000000000               0.000000000               0.000672023               0.001693892               0.000403295               0.000040272               0.000551201               0.000591473               0.000000000               0.000000000               0.000000000               0.000000000               0.000623526               0.001900580               0.000364068              -0.000003751               0.000634771               0.000631020               0.000000000               0.000000000               0.000000000               0.000000000               0.000570977               0.002072430               0.000330879              -0.000044937               0.000705782               0.000660845               0.000000000               0.000000000               0.000000000               0.000000000               0.000516297               0.002227176               0.000302185              -0.000084786               0.000770647               0.000685861               0.000000000               0.000000000               0.000000000               0.000000000               0.000464875               0.002369711               0.000273813              -0.000121886               0.000830524               0.000708639               0.000000000               0.000000000               0.000000000               0.000000000               0.000428312               0.002499486               0.000242016              -0.000151819               0.000883760               0.000731941               0.000000000               0.000000000               0.000000000               0.000000000               0.000402927               0.002614610               0.000202950              -0.000175728               0.000930104               0.000754376               0.000000000               0.000000000               0.000000000               0.000000000               0.000378850               0.002718611               0.000166530              -0.000197757               0.000972113               0.000774356               0.000000000               0.000000000               0.000000000               0.000000000               0.000358654               0.002806723               0.000141221              -0.000216345               0.001007680               0.000791335               0.000000000               0.000000000               0.000000000               0.000000000               0.000345362               0.002874034               0.000112817              -0.000229743               0.001034583               0.000804840               0.000000000               0.000000000               0.000000000               0.000000000               0.000339294               0.002927919               0.000064839              -0.000238754               0.001055548               0.000816794               0.000000000               0.000000000               0.000000000               0.000000000               0.000333687               0.002950007               0.000034130              -0.000243618               0.001064532               0.000820914               0.000000000               0.000000000               0.000000000               0.000000000               0.000113458               0.000082589               0.000104180               0.000032223               0.000016788               0.000049011               0.000000000               0.000000000               0.000000000               0.000000000               0.000496506               0.000308112               0.000184529               0.000147674               0.000053478               0.000201152               0.000000000               0.000000000               0.000000000               0.000000000               0.000733198               0.000633483               0.000250854               0.000195762               0.000145905               0.000341667               0.000000000               0.000000000               0.000000000               0.000000000               0.000793524               0.000968027               0.000258217               0.000176566               0.000263817               0.000440383               0.000000000               0.000000000               0.000000000               0.000000000               0.000784715               0.001263468               0.000242822               0.000136333               0.000375708               0.000512041               0.000000000               0.000000000               0.000000000               0.000000000               0.000750959               0.001521244               0.000220501               0.000091453               0.000476592               0.000568045               0.000000000               0.000000000               0.000000000               0.000000000               0.000703916               0.001749242               0.000200559               0.000045313               0.000567970               0.000613283               0.000000000               0.000000000               0.000000000               0.000000000               0.000649410               0.001950668               0.000185015              -0.000000305               0.000650318               0.000650013               0.000000000               0.000000000               0.000000000               0.000000000               0.000590948               0.002124555               0.000169966              -0.000043964               0.000722833               0.000678869               0.000000000               0.000000000               0.000000000               0.000000000               0.000533477               0.002276561               0.000156210              -0.000084516               0.000787018               0.000702502               0.000000000               0.000000000               0.000000000               0.000000000               0.000484259               0.002417317               0.000140056              -0.000120567               0.000845953               0.000725386               0.000000000               0.000000000               0.000000000               0.000000000               0.000450180               0.002548918               0.000113850              -0.000149797               0.000899563               0.000749766               0.000000000               0.000000000               0.000000000               0.000000000               0.000433757               0.002668623               0.000091441              -0.000170919               0.000946505               0.000775587               0.000000000               0.000000000               0.000000000               0.000000000               0.000427751               0.002772803               0.000081533              -0.000186193               0.000986323               0.000800130               0.000000000               0.000000000               0.000000000               0.000000000               0.000426019               0.002858507               0.000069068              -0.000197556               0.001018678               0.000821122               0.000000000               0.000000000               0.000000000               0.000000000               0.000434381               0.002923093               0.000040786              -0.000202493               0.001041852               0.000839359               0.000000000               0.000000000               0.000000000               0.000000000               0.000447283               0.002951337               0.000021912              -0.000201186               0.001050831               0.000849645               0.000000000               0.000000000               0.000000000               0.000000000               0.000068133               0.000054346               0.000000000               0.000018756               0.000011863               0.000030619               0.000000000               0.000000000               0.000000000               0.000000000               0.000479199               0.000262859               0.000000000               0.000146841               0.000038672               0.000185513               0.000000000               0.000000000               0.000000000               0.000000000               0.000744682               0.000570655              -0.000000000               0.000207922               0.000120909               0.000328831               0.000000000               0.000000000               0.000000000               0.000000000               0.000815828               0.000902265               0.000000000               0.000193150               0.000236369               0.000429519               0.000000000               0.000000000               0.000000000               0.000000000               0.000809335               0.001197173               0.000000000               0.000153852               0.000347770               0.000501622               0.000000000               0.000000000               0.000000000               0.000000000               0.000775955               0.001455279              -0.000000000               0.000109072               0.000448731               0.000557803               0.000000000               0.000000000               0.000000000               0.000000000               0.000732219               0.001695416               0.000000000               0.000062655               0.000544248               0.000606903               0.000000000               0.000000000               0.000000000               0.000000000               0.000678953               0.001910844               0.000000000               0.000015752               0.000631691               0.000647443               0.000000000               0.000000000               0.000000000               0.000000000               0.000618557               0.002087034               0.000000000              -0.000028920               0.000705311               0.000676391               0.000000000               0.000000000               0.000000000               0.000000000               0.000559599               0.002238458               0.000000000              -0.000069957               0.000769464               0.000699507               0.000000000               0.000000000               0.000000000               0.000000000               0.000504337               0.002382746               0.000000000              -0.000108717               0.000830480               0.000721763               0.000000000               0.000000000               0.000000000               0.000000000               0.000467997               0.002520564              -0.000000000              -0.000139571               0.000886703               0.000747132               0.000000000               0.000000000               0.000000000               0.000000000               0.000459252               0.002647759              -0.000000000              -0.000158750               0.000935494               0.000776744               0.000000000               0.000000000               0.000000000               0.000000000               0.000457935               0.002760369               0.000000000              -0.000173320               0.000977887               0.000804567               0.000000000               0.000000000               0.000000000               0.000000000               0.000457611               0.002857027               0.000000000              -0.000185524               0.001014174               0.000828650               0.000000000               0.000000000               0.000000000               0.000000000               0.000470324               0.002928094              -0.000000000              -0.000189640               0.001039235               0.000849595               0.000000000               0.000000000               0.000000000               0.000000000               0.000491899               0.002958732              -0.000000000              -0.000185379               0.001048027               0.000862648               0.000000000               0.000000000               0.000000000               0.000000000               0.000491162               0.005845014               0.000000000              -0.000546440               0.002130465               0.001584025               0.000000000               0.000000000               0.000000000               0.000000000               0.000546386               0.004863137              -0.000000000              -0.000402996               0.001755362               0.001352365               0.000000000               0.000000000               0.000000000               0.000000000               0.000765565               0.004064744              -0.000000000              -0.000221006               0.001428570               0.001207564               0.000000000               0.000000000               0.000000000               0.000000000               0.000795500               0.003625122              -0.000000000              -0.000154827               0.001259971               0.001105144               0.000000000               0.000000000               0.000000000               0.000000000               0.000750137               0.003369906               0.000000000              -0.000139937               0.001169936               0.001030000               0.000000000               0.000000000               0.000000000               0.000000000               0.000682641               0.003213709               0.000000000              -0.000145723               0.001119800               0.000974077               0.000000000               0.000000000               0.000000000               0.000000000               0.000609869               0.003115734              -0.000000000              -0.000160765               0.001092156               0.000931391               0.000000000               0.000000000               0.000000000               0.000000000               0.000537755               0.003054115              -0.000000000              -0.000180106               0.001078063               0.000897958               0.000000000               0.000000000               0.000000000               0.000000000               0.000472740               0.003016984               0.000000000              -0.000199845               0.001072266               0.000872421               0.000000000               0.000000000               0.000000000               0.000000000               0.000412703               0.002998266               0.000000000              -0.000220019               0.001072752               0.000852732               0.000000000               0.000000000               0.000000000               0.000000000               0.000355102               0.002991472               0.000000000              -0.000240770               0.001077404               0.000836634               0.000000000               0.000000000               0.000000000               0.000000000               0.000299726               0.002991398              -0.000000000              -0.000261527               0.001084298               0.000822772               0.000000000               0.000000000               0.000000000               0.000000000               0.000244426               0.002995340              -0.000000000              -0.000282757               0.001092689               0.000809932               0.000000000               0.000000000               0.000000000               0.000000000               0.000186507               0.003003235              -0.000000000              -0.000305463               0.001102889               0.000797426               0.000000000               0.000000000               0.000000000               0.000000000               0.000125367               0.003010113              -0.000000000              -0.000329251               0.001113111               0.000783861               0.000000000               0.000000000               0.000000000               0.000000000               0.000063059               0.003015206               0.000000000              -0.000353253               0.001122809               0.000769557               0.000000000               0.000000000               0.000000000               0.000000000               0.000032944               0.003019494               0.000000000              -0.000365082               0.001128182               0.000763100               0.000000000               0.000000000               0.000000000               0.000000000               0.000526615               0.005751027              -0.000446431              -0.000521397               0.002090789               0.001569392               0.000000000               0.000000000               0.000000000               0.000000000               0.000560496               0.004792387              -0.000292391              -0.000388862               0.001727067               0.001338205               0.000000000               0.000000000               0.000000000               0.000000000               0.000756059               0.004026193              -0.000130315              -0.000219752               0.001415301               0.001195550               0.000000000               0.000000000               0.000000000               0.000000000               0.000774631               0.003604335              -0.000051709              -0.000160055               0.001254784               0.001094730               0.000000000               0.000000000               0.000000000               0.000000000               0.000725053               0.003355453              -0.000013452              -0.000147536               0.001167652               0.001020116               0.000000000               0.000000000               0.000000000               0.000000000               0.000655346               0.003203608               0.000004799              -0.000154696               0.001119424               0.000964728               0.000000000               0.000000000               0.000000000               0.000000000               0.000583804               0.003108858               0.000013851              -0.000169680               0.001092836               0.000923156               0.000000000               0.000000000               0.000000000               0.000000000               0.000513984               0.003049139               0.000017884              -0.000188398               0.001079169               0.000890771               0.000000000               0.000000000               0.000000000               0.000000000               0.000449689               0.003013786               0.000019170              -0.000208089               0.001073948               0.000865859               0.000000000               0.000000000               0.000000000               0.000000000               0.000390165               0.002995350               0.000019618              -0.000228106               0.001074475               0.000846369               0.000000000               0.000000000               0.000000000               0.000000000               0.000335340               0.002990347               0.000017584              -0.000248040               0.001079452               0.000831412               0.000000000               0.000000000               0.000000000               0.000000000               0.000283736               0.002990068               0.000014669              -0.000267357               0.001085798               0.000818441               0.000000000               0.000000000               0.000000000               0.000000000               0.000232767               0.002994669               0.000014671              -0.000287045               0.001093895               0.000806850               0.000000000               0.000000000               0.000000000               0.000000000               0.000178879               0.003004078               0.000014512              -0.000308429               0.001104159               0.000795730               0.000000000               0.000000000               0.000000000               0.000000000               0.000120374               0.003015581               0.000012247              -0.000331807               0.001115786               0.000783979               0.000000000               0.000000000               0.000000000               0.000000000               0.000060019               0.003026638               0.000007256              -0.000355822               0.001127476               0.000771655               0.000000000               0.000000000               0.000000000               0.000000000               0.000032497               0.003037434               0.000002710              -0.000367492               0.001134965               0.000767473               0.000000000               0.000000000               0.000000000               0.000000000               0.000617997               0.005476496              -0.000846564              -0.000452813               0.001976418               0.001523605               0.000000000               0.000000000               0.000000000               0.000000000               0.000592552               0.004593242              -0.000553957              -0.000351948               0.001648381               0.001296434               0.000000000               0.000000000               0.000000000               0.000000000               0.000725755               0.003916831              -0.000250331              -0.000217445               0.001378079               0.001160634               0.000000000               0.000000000               0.000000000               0.000000000               0.000715128               0.003542046              -0.000107203              -0.000174582               0.001238864               0.001064282               0.000000000               0.000000000               0.000000000               0.000000000               0.000655274               0.003316480              -0.000036511              -0.000168832               0.001161760               0.000992928               0.000000000               0.000000000               0.000000000               0.000000000               0.000586719               0.003179047              -0.000001274              -0.000177361               0.001118792               0.000941431               0.000000000               0.000000000               0.000000000               0.000000000               0.000519133               0.003094880               0.000015236              -0.000192185               0.001095678               0.000903493               0.000000000               0.000000000               0.000000000               0.000000000               0.000452378               0.003042813               0.000021859              -0.000210709               0.001084497               0.000873788               0.000000000               0.000000000               0.000000000               0.000000000               0.000391480               0.003012755               0.000023278              -0.000229789               0.001080838               0.000851049               0.000000000               0.000000000               0.000000000               0.000000000               0.000336272               0.002996874               0.000024884              -0.000248507               0.001081784               0.000833277               0.000000000               0.000000000               0.000000000               0.000000000               0.000287064               0.002991384               0.000022438              -0.000266273               0.001085876               0.000819602               0.000000000               0.000000000               0.000000000               0.000000000               0.000243794               0.002992537               0.000016744              -0.000282644               0.001091717               0.000809073               0.000000000               0.000000000               0.000000000               0.000000000               0.000200312               0.002997789               0.000016619              -0.000299606               0.001099122               0.000799516               0.000000000               0.000000000               0.000000000               0.000000000               0.000153745               0.003008667               0.000018127              -0.000318428               0.001109022               0.000790593               0.000000000               0.000000000               0.000000000               0.000000000               0.000102776               0.003025522               0.000016160              -0.000339648               0.001121713               0.000782065               0.000000000               0.000000000               0.000000000               0.000000000               0.000049963               0.003046620               0.000010155              -0.000362091               0.001136227               0.000774136               0.000000000               0.000000000               0.000000000               0.000000000               0.000027889               0.003066404               0.000004663              -0.000372841               0.001146405               0.000773564               0.000000000               0.000000000               0.000000000               0.000000000               0.000747745               0.005051093              -0.001166875              -0.000350982               0.001800675               0.001449692               0.000000000               0.000000000               0.000000000               0.000000000               0.000632639               0.004294872              -0.000765030              -0.000299619               0.001531483               0.001231863               0.000000000               0.000000000               0.000000000               0.000000000               0.000673021               0.003754940              -0.000353657              -0.000216984               0.001323962               0.001106978               0.000000000               0.000000000               0.000000000               0.000000000               0.000630734               0.003450925              -0.000166115              -0.000194840               0.001215243               0.001020404               0.000000000               0.000000000               0.000000000               0.000000000               0.000563535               0.003265790              -0.000073969              -0.000196898               0.001154218               0.000957321               0.000000000               0.000000000               0.000000000               0.000000000               0.000494236               0.003149637              -0.000027553              -0.000208366               0.001119324               0.000910958               0.000000000               0.000000000               0.000000000               0.000000000               0.000430399               0.003077898              -0.000005918              -0.000223337               0.001100401               0.000877064               0.000000000               0.000000000               0.000000000               0.000000000               0.000371158               0.003034665               0.000002588              -0.000240148               0.001091594               0.000851446               0.000000000               0.000000000               0.000000000               0.000000000               0.000319588               0.003008264               0.000005576              -0.000256187               0.001088140               0.000831954               0.000000000               0.000000000               0.000000000               0.000000000               0.000274825               0.002994226               0.000007363              -0.000271218               0.001088471               0.000817253               0.000000000               0.000000000               0.000000000               0.000000000               0.000231447               0.002986570               0.000005975              -0.000286528               0.001091023               0.000804495               0.000000000               0.000000000               0.000000000               0.000000000               0.000191694               0.002987248               0.000000113              -0.000301520               0.001096246               0.000794726               0.000000000               0.000000000               0.000000000               0.000000000               0.000153825               0.002991545              -0.000000122              -0.000316258               0.001102591               0.000786333               0.000000000               0.000000000               0.000000000               0.000000000               0.000115649               0.003001625               0.000005414              -0.000331834               0.001111143               0.000779309               0.000000000               0.000000000               0.000000000               0.000000000               0.000076097               0.003019252               0.000008653              -0.000348869               0.001122697               0.000773828               0.000000000               0.000000000               0.000000000               0.000000000               0.000036394               0.003042485               0.000006809              -0.000366662               0.001136372               0.000769710               0.000000000               0.000000000               0.000000000               0.000000000               0.000021068               0.003063454               0.000002418              -0.000375030               0.001146151               0.000771121               0.000000000               0.000000000               0.000000000               0.000000000               0.000889024               0.004526334              -0.001383831              -0.000232409               0.001586232               0.001353824               0.000000000               0.000000000               0.000000000               0.000000000               0.000672689               0.003934312              -0.000915598              -0.000239531               0.001391268               0.001151737               0.000000000               0.000000000               0.000000000               0.000000000               0.000606913               0.003562848              -0.000440626              -0.000217763               0.001260192               0.001042429               0.000000000               0.000000000               0.000000000               0.000000000               0.000532911               0.003339954              -0.000229973              -0.000217652               0.001185858               0.000968206               0.000000000               0.000000000               0.000000000               0.000000000               0.000463117               0.003197905              -0.000127341              -0.000226069               0.001141314               0.000915245               0.000000000               0.000000000               0.000000000               0.000000000               0.000396642               0.003105264              -0.000075002              -0.000239417               0.001114883               0.000875466               0.000000000               0.000000000               0.000000000               0.000000000               0.000338476               0.003046645              -0.000048066              -0.000253901               0.001100172               0.000846271               0.000000000               0.000000000               0.000000000               0.000000000               0.000289498               0.003008950              -0.000035174              -0.000267556               0.001092159               0.000824602               0.000000000               0.000000000               0.000000000               0.000000000               0.000247143               0.002985084              -0.000029890              -0.000280456               0.001088503               0.000808047               0.000000000               0.000000000               0.000000000               0.000000000               0.000209568               0.002970461              -0.000026756              -0.000292719               0.001087717               0.000794998               0.000000000               0.000000000               0.000000000               0.000000000               0.000174400               0.002962104              -0.000025647              -0.000304862               0.001088979               0.000784116               0.000000000               0.000000000               0.000000000               0.000000000               0.000140632               0.002961776              -0.000028908              -0.000317484               0.001093077               0.000775593               0.000000000               0.000000000               0.000000000               0.000000000               0.000108348               0.002967234              -0.000027296              -0.000330273               0.001099159               0.000768886               0.000000000               0.000000000               0.000000000               0.000000000               0.000077872               0.002976651              -0.000015294              -0.000342879               0.001106500               0.000763621               0.000000000               0.000000000               0.000000000               0.000000000               0.000048512               0.002992113              -0.000004494              -0.000355821               0.001115968               0.000760147               0.000000000               0.000000000               0.000000000               0.000000000               0.000021650               0.003011411               0.000000021              -0.000368307               0.001126562               0.000758256               0.000000000               0.000000000               0.000000000               0.000000000               0.000013051               0.003028020              -0.000000724              -0.000373607               0.001133866               0.000760258               0.000000000               0.000000000               0.000000000               0.000000000               0.001004500               0.003949437              -0.001493119              -0.000116993               0.001355463               0.001238470               0.000000000               0.000000000               0.000000000               0.000000000               0.000698133               0.003545862              -0.001007156              -0.000181433               0.001242420               0.001060986               0.000000000               0.000000000               0.000000000               0.000000000               0.000534669               0.003353791              -0.000514919              -0.000218723               0.001190827               0.000972104               0.000000000               0.000000000               0.000000000               0.000000000               0.000436295               0.003207658              -0.000299055              -0.000237346               0.001148324               0.000910978               0.000000000               0.000000000               0.000000000               0.000000000               0.000366775               0.003106857              -0.000191338              -0.000250816               0.001119214               0.000868398               0.000000000               0.000000000               0.000000000               0.000000000               0.000309685               0.003039452              -0.000132896              -0.000263799               0.001101073               0.000837275               0.000000000               0.000000000               0.000000000               0.000000000               0.000262142               0.002994879              -0.000100457              -0.000276056               0.001090302               0.000814246               0.000000000               0.000000000               0.000000000               0.000000000               0.000222362               0.002963602              -0.000083218              -0.000287064               0.001083545               0.000796481               0.000000000               0.000000000               0.000000000               0.000000000               0.000187846               0.002944115              -0.000074274              -0.000297571               0.001080552               0.000782981               0.000000000               0.000000000               0.000000000               0.000000000               0.000158026               0.002932613              -0.000068645              -0.000307316               0.001079966               0.000772650               0.000000000               0.000000000               0.000000000               0.000000000               0.000128795               0.002926320              -0.000061191              -0.000317491               0.001081260               0.000763769               0.000000000               0.000000000               0.000000000               0.000000000               0.000100879               0.002929988              -0.000055410              -0.000328418               0.001086125               0.000757707               0.000000000               0.000000000               0.000000000               0.000000000               0.000073810               0.002940721              -0.000048564              -0.000339910               0.001093534               0.000753624               0.000000000               0.000000000               0.000000000               0.000000000               0.000048437               0.002953527              -0.000031880              -0.000351026               0.001101508               0.000750482               0.000000000               0.000000000               0.000000000               0.000000000               0.000028249               0.002967857              -0.000014017              -0.000360388               0.001109405               0.000749017               0.000000000               0.000000000               0.000000000               0.000000000               0.000012368               0.002982914              -0.000004420              -0.000368225               0.001117037               0.000748811               0.000000000               0.000000000               0.000000000               0.000000000               0.000007618               0.002992914              -0.000002925              -0.000371257               0.001121380               0.000750124               0.000000000               0.000000000               0.000000000               0.000000000               0.001076469               0.003356335              -0.001505770              -0.000015868               0.001124056               0.001108188               0.000000000               0.000000000               0.000000000               0.000000000               0.000705157               0.003153466              -0.001048252              -0.000129750               0.001094395               0.000964644               0.000000000               0.000000000               0.000000000               0.000000000               0.000463014               0.003136867              -0.000579804              -0.000218478               0.001118438               0.000899960               0.000000000               0.000000000               0.000000000               0.000000000               0.000355559               0.003065557              -0.000370217              -0.000249860               0.001105129               0.000855269               0.000000000               0.000000000               0.000000000               0.000000000               0.000293879               0.003007120              -0.000258321              -0.000265685               0.001090925               0.000825240               0.000000000               0.000000000               0.000000000               0.000000000               0.000247293               0.002964436              -0.000194254              -0.000277819               0.001080742               0.000802923               0.000000000               0.000000000               0.000000000               0.000000000               0.000208060               0.002931527              -0.000156876              -0.000288418               0.001073305               0.000784887               0.000000000               0.000000000               0.000000000               0.000000000               0.000176366               0.002907048              -0.000133694              -0.000297243               0.001068087               0.000770844               0.000000000               0.000000000               0.000000000               0.000000000               0.000149579               0.002894737              -0.000116901              -0.000305749               0.001066819               0.000761070               0.000000000               0.000000000               0.000000000               0.000000000               0.000128180               0.002892547              -0.000103881              -0.000313500               0.001068673               0.000755173               0.000000000               0.000000000               0.000000000               0.000000000               0.000108874               0.002899588              -0.000088313              -0.000321620               0.001073726               0.000752106               0.000000000               0.000000000               0.000000000               0.000000000               0.000086896               0.002911969              -0.000073231              -0.000331410               0.001081117               0.000749707               0.000000000               0.000000000               0.000000000               0.000000000               0.000062247               0.002928882              -0.000060470              -0.000342767               0.001090540               0.000747773               0.000000000               0.000000000               0.000000000               0.000000000               0.000039338               0.002946721              -0.000041859              -0.000353588               0.001100093               0.000746506               0.000000000               0.000000000               0.000000000               0.000000000               0.000022675               0.002960369              -0.000021940              -0.000361542               0.001107294               0.000745752               0.000000000               0.000000000               0.000000000               0.000000000               0.000011116               0.002967240              -0.000009642              -0.000366735               0.001111315               0.000744580               0.000000000               0.000000000               0.000000000               0.000000000               0.000006684               0.002969513              -0.000006197              -0.000368682               0.001112722               0.000744040               0.000000000               0.000000000               0.000000000               0.000000000               0.001101147               0.002784644              -0.001434106               0.000064847               0.000906589               0.000971436               0.000000000               0.000000000               0.000000000               0.000000000               0.000693184               0.002780125              -0.001047307              -0.000087573               0.000955890               0.000868317               0.000000000               0.000000000               0.000000000               0.000000000               0.000403953               0.002923037              -0.000636728              -0.000213897               0.001045635               0.000831738               0.000000000               0.000000000               0.000000000               0.000000000               0.000300271               0.002924184              -0.000437403              -0.000252921               0.001059025               0.000806104               0.000000000               0.000000000               0.000000000               0.000000000               0.000246569               0.002905676              -0.000321452              -0.000270746               0.001058798               0.000788052               0.000000000               0.000000000               0.000000000               0.000000000               0.000209606               0.002885342              -0.000251822              -0.000282065               0.001055793               0.000773728               0.000000000               0.000000000               0.000000000               0.000000000               0.000177028               0.002866029              -0.000208203              -0.000291867               0.001052623               0.000760755               0.000000000               0.000000000               0.000000000               0.000000000               0.000153077               0.002855393              -0.000175634              -0.000299520               0.001051628               0.000752108               0.000000000               0.000000000               0.000000000               0.000000000               0.000135502               0.002857281              -0.000147632              -0.000306346               0.001054533               0.000748187               0.000000000               0.000000000               0.000000000               0.000000000               0.000120122               0.002869011              -0.000124378              -0.000313580               0.001060854               0.000747274               0.000000000               0.000000000               0.000000000               0.000000000               0.000104890               0.002890381              -0.000103010              -0.000321963               0.001070772               0.000748808               0.000000000               0.000000000               0.000000000               0.000000000               0.000085364               0.002914031              -0.000082859              -0.000332241               0.001082081               0.000749840               0.000000000               0.000000000               0.000000000               0.000000000               0.000062759               0.002937981              -0.000064655              -0.000343712               0.001093888               0.000750176               0.000000000               0.000000000               0.000000000               0.000000000               0.000040990               0.002956934              -0.000044665              -0.000354245               0.001103717               0.000749472               0.000000000               0.000000000               0.000000000               0.000000000               0.000025986               0.002965567              -0.000025377              -0.000360950               0.001108829               0.000747879               0.000000000               0.000000000               0.000000000               0.000000000               0.000013336               0.002963640              -0.000011451              -0.000365453               0.001109688               0.000744235               0.000000000               0.000000000               0.000000000               0.000000000               0.000005586               0.002959206              -0.000005066              -0.000367805               0.001108994               0.000741189               0.000000000               0.000000000               0.000000000               0.000000000               0.001095248               0.002280332              -0.001306421               0.000125674               0.000718211               0.000843885               0.000000000               0.000000000               0.000000000               0.000000000               0.000685620               0.002443355              -0.001026767              -0.000048313               0.000830548               0.000782235               0.000000000               0.000000000               0.000000000               0.000000000               0.000376688               0.002728867              -0.000701036              -0.000199850               0.000976230               0.000776380               0.000000000               0.000000000               0.000000000               0.000000000               0.000281000               0.002802784              -0.000509352              -0.000244973               0.001015910               0.000770937               0.000000000               0.000000000               0.000000000               0.000000000               0.000230625               0.002822980              -0.000389523              -0.000266388               0.001029780               0.000763392               0.000000000               0.000000000               0.000000000               0.000000000               0.000197631               0.002827294              -0.000312817              -0.000279299               0.001035522               0.000756222               0.000000000               0.000000000               0.000000000               0.000000000               0.000172023               0.002826482              -0.000258808              -0.000288801               0.001038418               0.000749617               0.000000000               0.000000000               0.000000000               0.000000000               0.000153776               0.002832306              -0.000216368              -0.000296371               0.001042883               0.000746511               0.000000000               0.000000000               0.000000000               0.000000000               0.000142668               0.002845408              -0.000178476              -0.000302175               0.001049185               0.000747010               0.000000000               0.000000000               0.000000000               0.000000000               0.000131057               0.002866587              -0.000146664              -0.000309176               0.001058578               0.000749402               0.000000000               0.000000000               0.000000000               0.000000000               0.000119138               0.002898404              -0.000118076              -0.000317623               0.001071999               0.000754376               0.000000000               0.000000000               0.000000000               0.000000000               0.000103199               0.002932953              -0.000091394              -0.000327919               0.001086947               0.000759029               0.000000000               0.000000000               0.000000000               0.000000000               0.000081174               0.002961167              -0.000068462              -0.000339705               0.001100281               0.000760576               0.000000000               0.000000000               0.000000000               0.000000000               0.000057191               0.002977756              -0.000047633              -0.000350772               0.001109499               0.000758728               0.000000000               0.000000000               0.000000000               0.000000000               0.000038415               0.002981089              -0.000027465              -0.000358230               0.001113096               0.000754867               0.000000000               0.000000000               0.000000000               0.000000000               0.000019998               0.002974420              -0.000010438              -0.000364302               0.001112898               0.000748595               0.000000000               0.000000000               0.000000000               0.000000000               0.000006422               0.002966841              -0.000002085              -0.000368446               0.001111752               0.000743306               0.000000000               0.000000000               0.000000000               0.000000000               0.001050578               0.001787870              -0.001153984               0.000170480               0.000539123               0.000709604               0.000000000               0.000000000               0.000000000               0.000000000               0.000693854               0.002053793              -0.000998647               0.000003470               0.000683434               0.000686904               0.000000000               0.000000000               0.000000000               0.000000000               0.000392031               0.002447983              -0.000779178              -0.000158987               0.000868982               0.000709995               0.000000000               0.000000000               0.000000000               0.000000000               0.000297422               0.002603375              -0.000602621              -0.000213888               0.000939079               0.000725191               0.000000000               0.000000000               0.000000000               0.000000000               0.000251416               0.002678129              -0.000478854              -0.000240485               0.000972862               0.000732378               0.000000000               0.000000000               0.000000000               0.000000000               0.000217495               0.002723012              -0.000390746              -0.000258816               0.000993933               0.000735118               0.000000000               0.000000000               0.000000000               0.000000000               0.000191264               0.002750582              -0.000325564              -0.000272098               0.001007551               0.000735453               0.000000000               0.000000000               0.000000000               0.000000000               0.000170722               0.002771989              -0.000275238              -0.000282477               0.001018146               0.000735669               0.000000000               0.000000000               0.000000000               0.000000000               0.000159989               0.002795285              -0.000232775              -0.000289414               0.001028224               0.000738810               0.000000000               0.000000000               0.000000000               0.000000000               0.000154121               0.002826699              -0.000193775              -0.000295541               0.001040737               0.000745196               0.000000000               0.000000000               0.000000000               0.000000000               0.000143796               0.002868803              -0.000155342              -0.000304676               0.001057817               0.000753141               0.000000000               0.000000000               0.000000000               0.000000000               0.000127856               0.002912874              -0.000119733              -0.000316162               0.001076336               0.000760173               0.000000000               0.000000000               0.000000000               0.000000000               0.000105450               0.002948077              -0.000089260              -0.000328965               0.001092337               0.000763372               0.000000000               0.000000000               0.000000000               0.000000000               0.000077945               0.002969096              -0.000062887              -0.000341907               0.001103658               0.000761751               0.000000000               0.000000000               0.000000000               0.000000000               0.000048548               0.002975776              -0.000036958              -0.000353766               0.001109837               0.000756072               0.000000000               0.000000000               0.000000000               0.000000000               0.000020956               0.002975867              -0.000013271              -0.000364124               0.001113320               0.000749196               0.000000000               0.000000000               0.000000000               0.000000000               0.000003111               0.002972171              -0.000000874              -0.000370354               0.001114165               0.000743811               0.000000000               0.000000000               0.000000000               0.000000000               0.000949598               0.001324222              -0.000976120               0.000190569               0.000377880               0.000568448               0.000000000               0.000000000               0.000000000               0.000000000               0.000699526               0.001665207              -0.000943618               0.000054170               0.000537006               0.000591176               0.000000000               0.000000000               0.000000000               0.000000000               0.000441554               0.002133204              -0.000839134              -0.000101069               0.000744750               0.000643682               0.000000000               0.000000000               0.000000000               0.000000000               0.000348573               0.002365321              -0.000694116              -0.000164950               0.000843416               0.000678465               0.000000000               0.000000000               0.000000000               0.000000000               0.000298700               0.002500966              -0.000571975              -0.000200608               0.000900516               0.000699908               0.000000000               0.000000000               0.000000000               0.000000000               0.000262287               0.002593425              -0.000476948              -0.000225820               0.000939740               0.000713919               0.000000000               0.000000000               0.000000000               0.000000000               0.000230956               0.002655852              -0.000403515              -0.000245373               0.000967066               0.000721693               0.000000000               0.000000000               0.000000000               0.000000000               0.000206658               0.002700899              -0.000348178              -0.000260115               0.000986996               0.000726881               0.000000000               0.000000000               0.000000000               0.000000000               0.000191458               0.002739350              -0.000303601              -0.000270621               0.001003315               0.000732693               0.000000000               0.000000000               0.000000000               0.000000000               0.000183930               0.002783147              -0.000258556              -0.000278919               0.001020679               0.000741761               0.000000000               0.000000000               0.000000000               0.000000000               0.000174575               0.002835979              -0.000210235              -0.000289031               0.001041661               0.000752629               0.000000000               0.000000000               0.000000000               0.000000000               0.000157968               0.002888736              -0.000165900              -0.000301853               0.001063520               0.000761667               0.000000000               0.000000000               0.000000000               0.000000000               0.000134182               0.002929031              -0.000127742              -0.000315810               0.001081604               0.000765794               0.000000000               0.000000000               0.000000000               0.000000000               0.000102972               0.002953711              -0.000093584              -0.000330599               0.001094760               0.000764161               0.000000000               0.000000000               0.000000000               0.000000000               0.000067087               0.002966680              -0.000058829              -0.000345677               0.001104109               0.000758433               0.000000000               0.000000000               0.000000000               0.000000000               0.000027653               0.002973148              -0.000025208              -0.000361273               0.001111464               0.000750191               0.000000000               0.000000000               0.000000000               0.000000000              -0.000001930               0.002968624              -0.000005941              -0.000371801               0.001113465               0.000741664               0.000000000               0.000000000               0.000000000               0.000000000               0.000796658               0.000913630              -0.000774698               0.000184541               0.000243026               0.000427567               0.000000000               0.000000000               0.000000000               0.000000000               0.000681590               0.001289057              -0.000844910               0.000094462               0.000398193               0.000492656               0.000000000               0.000000000               0.000000000               0.000000000               0.000504922               0.001782584              -0.000844924              -0.000033478               0.000605348               0.000571869               0.000000000               0.000000000               0.000000000               0.000000000               0.000425488               0.002075371              -0.000743035              -0.000099864               0.000725071               0.000625207               0.000000000               0.000000000               0.000000000               0.000000000               0.000375476               0.002269241              -0.000634582              -0.000142852               0.000804023               0.000661171               0.000000000               0.000000000               0.000000000               0.000000000               0.000335121               0.002412605              -0.000541894              -0.000175905               0.000862829               0.000686923               0.000000000               0.000000000               0.000000000               0.000000000               0.000298561               0.002515150              -0.000467156              -0.000202433               0.000905853               0.000703419               0.000000000               0.000000000               0.000000000               0.000000000               0.000266389               0.002590596              -0.000411111              -0.000223928               0.000938166               0.000714238               0.000000000               0.000000000               0.000000000               0.000000000               0.000243218               0.002656206              -0.000364528              -0.000240819               0.000965666               0.000724847               0.000000000               0.000000000               0.000000000               0.000000000               0.000227699               0.002718141              -0.000316424              -0.000254380               0.000990831               0.000736451               0.000000000               0.000000000               0.000000000               0.000000000               0.000215829               0.002782036              -0.000263234              -0.000266818               0.001016276               0.000749457               0.000000000               0.000000000               0.000000000               0.000000000               0.000198776               0.002846753              -0.000214181              -0.000281303               0.001042676               0.000761373               0.000000000               0.000000000               0.000000000               0.000000000               0.000173617               0.002897946              -0.000172056              -0.000297136               0.001065018               0.000767882               0.000000000               0.000000000               0.000000000               0.000000000               0.000142839               0.002933156              -0.000133611              -0.000313079               0.001082069               0.000768990               0.000000000               0.000000000               0.000000000               0.000000000               0.000102090               0.002951947              -0.000090815              -0.000330709               0.001094209               0.000763500               0.000000000               0.000000000               0.000000000               0.000000000               0.000050680               0.002964746              -0.000043213              -0.000351587               0.001105435               0.000753847               0.000000000               0.000000000               0.000000000               0.000000000               0.000007586               0.002962100              -0.000014128              -0.000367417               0.001109829               0.000742412               0.000000000               0.000000000               0.000000000               0.000000000               0.000608180               0.000581854              -0.000569732               0.000155334               0.000142171               0.000297505               0.000000000               0.000000000               0.000000000               0.000000000               0.000642172               0.000946219              -0.000709086               0.000122535               0.000274558               0.000397093               0.000000000               0.000000000               0.000000000               0.000000000               0.000574989               0.001423754              -0.000787108               0.000037650               0.000462030               0.000499680               0.000000000               0.000000000               0.000000000               0.000000000               0.000522336               0.001752057              -0.000730072              -0.000023132               0.000591723               0.000568592               0.000000000               0.000000000               0.000000000               0.000000000               0.000479247               0.001993422              -0.000644354              -0.000069461               0.000687621               0.000618160               0.000000000               0.000000000               0.000000000               0.000000000               0.000434335               0.002181561              -0.000562173              -0.000109820               0.000763786               0.000653966               0.000000000               0.000000000               0.000000000               0.000000000               0.000393751               0.002327008              -0.000494043              -0.000143219               0.000823401               0.000680182               0.000000000               0.000000000               0.000000000               0.000000000               0.000352158               0.002437598              -0.000440547              -0.000172640               0.000870071               0.000697431               0.000000000               0.000000000               0.000000000               0.000000000               0.000318043               0.002531224              -0.000395621              -0.000197137               0.000909445               0.000712309               0.000000000               0.000000000               0.000000000               0.000000000               0.000294314               0.002616786              -0.000348530              -0.000216730               0.000944497               0.000727767               0.000000000               0.000000000               0.000000000               0.000000000               0.000279019               0.002701393              -0.000295945              -0.000233041               0.000978136               0.000745094               0.000000000               0.000000000               0.000000000               0.000000000               0.000262554               0.002781922              -0.000245546              -0.000249282               0.001010392               0.000761110               0.000000000               0.000000000               0.000000000               0.000000000               0.000237968               0.002847137              -0.000204613              -0.000266654               0.001037921               0.000771267               0.000000000               0.000000000               0.000000000               0.000000000               0.000207584               0.002896926              -0.000165704              -0.000284271               0.001060389               0.000776118               0.000000000               0.000000000               0.000000000               0.000000000               0.000168229               0.002931078              -0.000116612              -0.000303298               0.001078115               0.000774817               0.000000000               0.000000000               0.000000000               0.000000000               0.000118618               0.002957069              -0.000058988              -0.000325151               0.001094063               0.000768912               0.000000000               0.000000000               0.000000000               0.000000000               0.000075075               0.002959353              -0.000024002              -0.000341765               0.001100363               0.000758598               0.000000000               0.000000000               0.000000000               0.000000000               0.000413757               0.000339922              -0.000382548               0.000112667               0.000075750               0.000188417               0.000000000               0.000000000               0.000000000               0.000000000               0.000591664               0.000659652              -0.000545761               0.000139416               0.000173410               0.000312825               0.000000000               0.000000000               0.000000000               0.000000000               0.000642325               0.001087855              -0.000663747               0.000104888               0.000327652               0.000432540               0.000000000               0.000000000               0.000000000               0.000000000               0.000627811               0.001430934              -0.000643715               0.000056561               0.000458119               0.000514681               0.000000000               0.000000000               0.000000000               0.000000000               0.000596128               0.001704235              -0.000583617               0.000010518               0.000564566               0.000575084               0.000000000               0.000000000               0.000000000               0.000000000               0.000554922               0.001929911              -0.000519670              -0.000033144               0.000654345               0.000621202               0.000000000               0.000000000               0.000000000               0.000000000               0.000510167               0.002112055              -0.000463699              -0.000072694               0.000728243               0.000655548               0.000000000               0.000000000               0.000000000               0.000000000               0.000461702               0.002251189              -0.000417334              -0.000108260               0.000786476               0.000678215               0.000000000               0.000000000               0.000000000               0.000000000               0.000415195               0.002373963              -0.000378774              -0.000141047               0.000838329               0.000697282               0.000000000               0.000000000               0.000000000               0.000000000               0.000378275               0.002490928              -0.000338252              -0.000169512               0.000886805               0.000717293               0.000000000               0.000000000               0.000000000               0.000000000               0.000354322               0.002600183              -0.000291974              -0.000192152               0.000930770               0.000738618               0.000000000               0.000000000               0.000000000               0.000000000               0.000336418               0.002696555              -0.000245441              -0.000210912               0.000969147               0.000758235               0.000000000               0.000000000               0.000000000               0.000000000               0.000312715               0.002780480              -0.000205980              -0.000230291               0.001003581               0.000773290               0.000000000               0.000000000               0.000000000               0.000000000               0.000282002               0.002850182              -0.000169970              -0.000250521               0.001033558               0.000783037               0.000000000               0.000000000               0.000000000               0.000000000               0.000252556               0.002903401              -0.000125573              -0.000268216               0.001057196               0.000788980               0.000000000               0.000000000               0.000000000               0.000000000               0.000223195               0.002945529              -0.000067305              -0.000284492               0.001076664               0.000792172               0.000000000               0.000000000               0.000000000               0.000000000               0.000196284               0.002957501              -0.000032099              -0.000296080               0.001084517               0.000788437               0.000000000               0.000000000               0.000000000               0.000000000               0.000238961               0.000176140              -0.000228723               0.000067592               0.000036182               0.000103774               0.000000000               0.000000000               0.000000000               0.000000000               0.000540227               0.000444381              -0.000368040               0.000147036               0.000099113               0.000246149               0.000000000               0.000000000               0.000000000               0.000000000               0.000698641               0.000815129              -0.000478952               0.000160097               0.000218341               0.000378438               0.000000000               0.000000000               0.000000000               0.000000000               0.000725876               0.001155347              -0.000481759               0.000127784               0.000342517               0.000470301               0.000000000               0.000000000               0.000000000               0.000000000               0.000707956               0.001445075              -0.000446364               0.000084848               0.000453404               0.000538252               0.000000000               0.000000000               0.000000000               0.000000000               0.000672023               0.001693892              -0.000403295               0.000040272               0.000551201               0.000591473               0.000000000               0.000000000               0.000000000               0.000000000               0.000623526               0.001900580              -0.000364068              -0.000003751               0.000634771               0.000631020               0.000000000               0.000000000               0.000000000               0.000000000               0.000570977               0.002072430              -0.000330879              -0.000044937               0.000705782               0.000660845               0.000000000               0.000000000               0.000000000               0.000000000               0.000516297               0.002227176              -0.000302185              -0.000084786               0.000770647               0.000685861               0.000000000               0.000000000               0.000000000               0.000000000               0.000464875               0.002369711              -0.000273813              -0.000121886               0.000830524               0.000708639               0.000000000               0.000000000               0.000000000               0.000000000               0.000428312               0.002499486              -0.000242016              -0.000151819               0.000883760               0.000731941               0.000000000               0.000000000               0.000000000               0.000000000               0.000402927               0.002614610              -0.000202950              -0.000175728               0.000930104               0.000754376               0.000000000               0.000000000               0.000000000               0.000000000               0.000378850               0.002718611              -0.000166530              -0.000197757               0.000972113               0.000774356               0.000000000               0.000000000               0.000000000               0.000000000               0.000358654               0.002806723              -0.000141221              -0.000216345               0.001007680               0.000791335               0.000000000               0.000000000               0.000000000               0.000000000               0.000345362               0.002874034              -0.000112817              -0.000229743               0.001034583               0.000804840               0.000000000               0.000000000               0.000000000               0.000000000               0.000339294               0.002927919              -0.000064839              -0.000238754               0.001055548               0.000816794               0.000000000               0.000000000               0.000000000               0.000000000               0.000333687               0.002950007              -0.000034130              -0.000243618               0.001064532               0.000820914               0.000000000               0.000000000               0.000000000               0.000000000               0.000113458               0.000082589              -0.000104180               0.000032223               0.000016788               0.000049011               0.000000000               0.000000000               0.000000000               0.000000000               0.000496506               0.000308112              -0.000184529               0.000147674               0.000053478               0.000201152               0.000000000               0.000000000               0.000000000               0.000000000               0.000733198               0.000633483              -0.000250854               0.000195762               0.000145905               0.000341667               0.000000000               0.000000000               0.000000000               0.000000000               0.000793524               0.000968027              -0.000258217               0.000176566               0.000263817               0.000440383               0.000000000               0.000000000               0.000000000               0.000000000               0.000784715               0.001263468              -0.000242822               0.000136333               0.000375708               0.000512041               0.000000000               0.000000000               0.000000000               0.000000000               0.000750959               0.001521244              -0.000220501               0.000091453               0.000476592               0.000568045               0.000000000               0.000000000               0.000000000               0.000000000               0.000703916               0.001749242              -0.000200559               0.000045313               0.000567970               0.000613283               0.000000000               0.000000000               0.000000000               0.000000000               0.000649410               0.001950668              -0.000185015              -0.000000305               0.000650318               0.000650013               0.000000000               0.000000000               0.000000000               0.000000000               0.000590948               0.002124555              -0.000169966              -0.000043964               0.000722833               0.000678869               0.000000000               0.000000000               0.000000000               0.000000000               0.000533477               0.002276561              -0.000156210              -0.000084516               0.000787018               0.000702502               0.000000000               0.000000000               0.000000000               0.000000000               0.000484259               0.002417317              -0.000140056              -0.000120567               0.000845953               0.000725386               0.000000000               0.000000000               0.000000000               0.000000000               0.000450180               0.002548918              -0.000113850              -0.000149797               0.000899563               0.000749766               0.000000000               0.000000000               0.000000000               0.000000000               0.000433757               0.002668623              -0.000091441              -0.000170919               0.000946505               0.000775587               0.000000000               0.000000000               0.000000000               0.000000000               0.000427751               0.002772803              -0.000081533              -0.000186193               0.000986323               0.000800130               0.000000000               0.000000000               0.000000000               0.000000000               0.000426019               0.002858507              -0.000069068              -0.000197556               0.001018678               0.000821122               0.000000000               0.000000000               0.000000000               0.000000000               0.000434381               0.002923093              -0.000040786              -0.000202493               0.001041852               0.000839359               0.000000000               0.000000000               0.000000000               0.000000000               0.000447283               0.002951337              -0.000021912              -0.000201186               0.001050831               0.000849645               0.000000000               0.000000000               0.000000000               0.000000000               0.000000000               0.000000000               0.000000000               0.000000000               0.000000000               0.000000000               0.000000000               0.000000000               0.000000000               0.000000000               0.000000000               0.000000000               0.000000000               0.000000000               0.000000000               0.000000000               0.000000000               0.000000000               0.000000000               0.000000000               0.000000000               0.000000000               0.000000000               0.000000000               0.000000000               0.000000000               0.000000000               0.000000000               0.000000000               0.000000000               0.000000000               0.000000000               0.000000000               0.000000000               0.000000000               0.000000000               0.000000000               0.000000000               0.000000000               0.000000000               0.000000000               0.000000000               0.000000000               0.000000000               0.000000000               0.000000000               0.000000000               0.000000000               0.000000000               0.000000000               0.000000000               0.000000000               0.000000000               0.000000000               0.000000000               0.000000000               0.000000000               0.000000000               0.000000000               0.000000000               0.000000000               0.000000000               0.000000000               0.000000000               0.000000000               0.000000000               0.000000000               0.000000000               0.000000000               0.000000000               0.000000000               0.000000000               0.000000000               0.000000000               0.000000000               0.000000000               0.000000000               0.000000000               0.000000000               0.000000000               0.000000000               0.000000000               0.000000000               0.000000000               0.000000000               0.000000000               0.000000000               0.000000000               0.000000000               0.000000000               0.000000000               0.000000000               0.000000000               0.000000000               0.000000000               0.000000000               0.000000000               0.000000000               0.000000000               0.000000000               0.000000000               0.000000000               0.000000000               0.000000000               0.000000000               0.000000000               0.000000000               0.000000000               0.000000000               0.000000000               0.000000000               0.000000000               0.000000000               0.000000000               0.000000000               0.000000000               0.000000000               0.000000000               0.000000000               0.000000000               0.000000000               0.000000000               0.000000000               0.000000000               0.000000000               0.000000000               0.000000000               0.000000000               0.000000000               0.000000000               0.000000000               0.000000000               0.000000000               0.000000000               0.000000000               0.000000000               0.000000000               0.000000000               0.000000000               0.000000000               0.000000000               0.000000000               0.000000000               0.000000000               0.000000000               0.000000000               0.000000000               0.000000000               0.000000000               0.000000000               0.000000000               0.000000000               0.000000000               0.000000000               0.000000000               0.000000000               0.000000000               0.000000000               0.000000000               0.000000000               0.000000000               0.000000000               0.000000000               0.000000000               0.000000000               0.000000000               0.000000000               0.000000000               0.000000000               0.000000000               0.000000000               0.000000000               0.000000000               0.000000000               0.000000000               0.000000000               0.000000000               0.000000000               0.000000000               0.000000000               0.000000000               0.000000000               0.000000000               0.000000000               0.000000000               0.000000000               0.000000000               0.000000000               0.000000000               0.000000000               0.000000000               0.000000000               0.000000000               0.000000000               0.000000000               0.000000000               0.000000000               0.000000000               0.000000000               0.000000000               0.000000000               0.000000000               0.000000000               0.000000000               0.000000000               0.000000000               0.000000000               0.000000000               0.000000000               0.000000000               0.000000000               0.000000000               0.000000000               0.000000000               0.000000000               0.000000000               0.000000000               0.000000000               0.000000000               0.000000000               0.000000000               0.000000000               0.000000000               0.000000000               0.000000000               0.000000000               0.000000000               0.000000000               0.000000000               0.000000000               0.000000000               0.000000000               0.000000000               0.000000000               0.000000000               0.000000000               0.000000000               0.000000000               0.000000000               0.000000000               0.000000000               0.000000000               0.000000000               0.000000000               0.000000000               0.000000000               0.000000000               0.000000000               0.000000000               0.000000000               0.000000000               0.000000000               0.000000000               0.000000000               0.000000000               0.000000000               0.000000000               0.000000000               0.000000000               0.000000000               0.000000000               0.000000000               0.000000000               0.000000000               0.000000000               0.000000000               0.000000000               0.000000000               0.000000000               0.000000000               0.000000000               0.000000000               0.000000000               0.000000000               0.000000000               0.000000000               0.000000000               0.000000000               0.000000000               0.000000000               0.000000000               0.000000000               0.000000000               0.000000000               0.000000000               0.000000000               0.000000000               0.000000000               0.000000000               0.000000000               0.000000000               0.000000000               0.000000000               0.000000000               0.000000000               0.000000000               0.000000000               0.000000000               0.000000000               0.000000000               0.000000000               0.000000000               0.000000000               0.000000000               0.000000000               0.000000000               0.000000000               0.000000000               0.000000000               0.000000000               0.000000000               0.000000000               0.000000000               0.000000000               0.000000000               0.000000000               0.000000000               0.000000000               0.000000000               0.000000000               0.000000000               0.000000000               0.000000000               0.000000000               0.000000000               0.000000000               0.000000000               0.000000000               0.000000000               0.000000000               0.000000000               0.000000000               0.000000000               0.000000000               0.000000000               0.000000000               0.000000000               0.000000000               0.000000000               0.000000000               0.000526615               0.005751027               0.000446431              -0.000521397               0.002090789               0.001569392               0.000000000               0.000000000               0.000000000               0.000000000               0.000560496               0.004792387               0.000292391              -0.000388862               0.001727067               0.001338205               0.000000000               0.000000000               0.000000000               0.000000000               0.000756059               0.004026193               0.000130315              -0.000219752               0.001415301               0.001195550               0.000000000               0.000000000               0.000000000               0.000000000               0.000774631               0.003604335               0.000051709              -0.000160055               0.001254784               0.001094730               0.000000000               0.000000000               0.000000000               0.000000000               0.000725053               0.003355453               0.000013452              -0.000147536               0.001167652               0.001020116               0.000000000               0.000000000               0.000000000               0.000000000               0.000655346               0.003203608              -0.000004799              -0.000154696               0.001119424               0.000964728               0.000000000               0.000000000               0.000000000               0.000000000               0.000583804               0.003108858              -0.000013851              -0.000169680               0.001092836               0.000923156               0.000000000               0.000000000               0.000000000               0.000000000               0.000513984               0.003049139              -0.000017884              -0.000188398               0.001079169               0.000890771               0.000000000               0.000000000               0.000000000               0.000000000               0.000449689               0.003013786              -0.000019170              -0.000208089               0.001073948               0.000865859               0.000000000               0.000000000               0.000000000               0.000000000               0.000390165               0.002995350              -0.000019618              -0.000228106               0.001074475               0.000846369               0.000000000               0.000000000               0.000000000               0.000000000               0.000335340               0.002990347              -0.000017584              -0.000248040               0.001079452               0.000831412               0.000000000               0.000000000               0.000000000               0.000000000               0.000283736               0.002990068              -0.000014669              -0.000267357               0.001085798               0.000818441               0.000000000               0.000000000               0.000000000               0.000000000               0.000232767               0.002994669              -0.000014671              -0.000287045               0.001093895               0.000806850               0.000000000               0.000000000               0.000000000               0.000000000               0.000178879               0.003004078              -0.000014512              -0.000308429               0.001104159               0.000795730               0.000000000               0.000000000               0.000000000               0.000000000               0.000120374               0.003015581              -0.000012247              -0.000331807               0.001115786               0.000783979               0.000000000               0.000000000               0.000000000               0.000000000               0.000060019               0.003026638              -0.000007256              -0.000355822               0.001127476               0.000771655               0.000000000               0.000000000               0.000000000               0.000000000               0.000032497               0.003037434              -0.000002710              -0.000367492               0.001134965               0.000767473               0.000000000               0.000000000               0.000000000               0.000000000               0.000617997               0.005476496               0.000846564              -0.000452813               0.001976418               0.001523605               0.000000000               0.000000000               0.000000000               0.000000000               0.000592552               0.004593242               0.000553957              -0.000351948               0.001648381               0.001296434               0.000000000               0.000000000               0.000000000               0.000000000               0.000725755               0.003916831               0.000250331              -0.000217445               0.001378079               0.001160634               0.000000000               0.000000000               0.000000000               0.000000000               0.000715128               0.003542046               0.000107203              -0.000174582               0.001238864               0.001064282               0.000000000               0.000000000               0.000000000               0.000000000               0.000655274               0.003316480               0.000036511              -0.000168832               0.001161760               0.000992928               0.000000000               0.000000000               0.000000000               0.000000000               0.000586719               0.003179047               0.000001274              -0.000177361               0.001118792               0.000941431               0.000000000               0.000000000               0.000000000               0.000000000               0.000519133               0.003094880              -0.000015236              -0.000192185               0.001095678               0.000903493               0.000000000               0.000000000               0.000000000               0.000000000               0.000452378               0.003042813              -0.000021859              -0.000210709               0.001084497               0.000873788               0.000000000               0.000000000               0.000000000               0.000000000               0.000391480               0.003012755              -0.000023278              -0.000229789               0.001080838               0.000851049               0.000000000               0.000000000               0.000000000               0.000000000               0.000336272               0.002996874              -0.000024884              -0.000248507               0.001081784               0.000833277               0.000000000               0.000000000               0.000000000               0.000000000               0.000287064               0.002991384              -0.000022438              -0.000266273               0.001085876               0.000819602               0.000000000               0.000000000               0.000000000               0.000000000               0.000243794               0.002992537              -0.000016744              -0.000282644               0.001091717               0.000809073               0.000000000               0.000000000               0.000000000               0.000000000               0.000200312               0.002997789              -0.000016619              -0.000299606               0.001099122               0.000799516               0.000000000               0.000000000               0.000000000               0.000000000               0.000153745               0.003008667              -0.000018127              -0.000318428               0.001109022               0.000790593               0.000000000               0.000000000               0.000000000               0.000000000               0.000102776               0.003025522              -0.000016160              -0.000339648               0.001121713               0.000782065               0.000000000               0.000000000               0.000000000               0.000000000               0.000049963               0.003046620              -0.000010155              -0.000362091               0.001136227               0.000774136               0.000000000               0.000000000               0.000000000               0.000000000               0.000027889               0.003066404              -0.000004663              -0.000372841               0.001146405               0.000773564               0.000000000               0.000000000               0.000000000               0.000000000               0.000747745               0.005051093               0.001166875              -0.000350982               0.001800675               0.001449692               0.000000000               0.000000000               0.000000000               0.000000000               0.000632639               0.004294872               0.000765030              -0.000299619               0.001531483               0.001231863               0.000000000               0.000000000               0.000000000               0.000000000               0.000673021               0.003754940               0.000353657              -0.000216984               0.001323962               0.001106978               0.000000000               0.000000000               0.000000000               0.000000000               0.000630734               0.003450925               0.000166115              -0.000194840               0.001215243               0.001020404               0.000000000               0.000000000               0.000000000               0.000000000               0.000563535               0.003265790               0.000073969              -0.000196898               0.001154218               0.000957321               0.000000000               0.000000000               0.000000000               0.000000000               0.000494236               0.003149637               0.000027553              -0.000208366               0.001119324               0.000910958               0.000000000               0.000000000               0.000000000               0.000000000               0.000430399               0.003077898               0.000005918              -0.000223337               0.001100401               0.000877064               0.000000000               0.000000000               0.000000000               0.000000000               0.000371158               0.003034665              -0.000002588              -0.000240148               0.001091594               0.000851446               0.000000000               0.000000000               0.000000000               0.000000000               0.000319588               0.003008264              -0.000005576              -0.000256187               0.001088140               0.000831954               0.000000000               0.000000000               0.000000000               0.000000000               0.000274825               0.002994226              -0.000007363              -0.000271218               0.001088471               0.000817253               0.000000000               0.000000000               0.000000000               0.000000000               0.000231447               0.002986570              -0.000005975              -0.000286528               0.001091023               0.000804495               0.000000000               0.000000000               0.000000000               0.000000000               0.000191694               0.002987248              -0.000000113              -0.000301520               0.001096246               0.000794726               0.000000000               0.000000000               0.000000000               0.000000000               0.000153825               0.002991545               0.000000122              -0.000316258               0.001102591               0.000786333               0.000000000               0.000000000               0.000000000               0.000000000               0.000115649               0.003001625              -0.000005414              -0.000331834               0.001111143               0.000779309               0.000000000               0.000000000               0.000000000               0.000000000               0.000076097               0.003019252              -0.000008653              -0.000348869               0.001122697               0.000773828               0.000000000               0.000000000               0.000000000               0.000000000               0.000036394               0.003042485              -0.000006809              -0.000366662               0.001136372               0.000769710               0.000000000               0.000000000               0.000000000               0.000000000               0.000021068               0.003063454              -0.000002418              -0.000375030               0.001146151               0.000771121               0.000000000               0.000000000               0.000000000               0.000000000               0.000889024               0.004526334               0.001383831              -0.000232409               0.001586232               0.001353824               0.000000000               0.000000000               0.000000000               0.000000000               0.000672689               0.003934312               0.000915598              -0.000239531               0.001391268               0.001151737               0.000000000               0.000000000               0.000000000               0.000000000               0.000606913               0.003562848               0.000440626              -0.000217763               0.001260192               0.001042429               0.000000000               0.000000000               0.000000000               0.000000000               0.000532911               0.003339954               0.000229973              -0.000217652               0.001185858               0.000968206               0.000000000               0.000000000               0.000000000               0.000000000               0.000463117               0.003197905               0.000127341              -0.000226069               0.001141314               0.000915245               0.000000000               0.000000000               0.000000000               0.000000000               0.000396642               0.003105264               0.000075002              -0.000239417               0.001114883               0.000875466               0.000000000               0.000000000               0.000000000               0.000000000               0.000338476               0.003046645               0.000048066              -0.000253901               0.001100172               0.000846271               0.000000000               0.000000000               0.000000000               0.000000000               0.000289498               0.003008950               0.000035174              -0.000267556               0.001092159               0.000824602               0.000000000               0.000000000               0.000000000               0.000000000               0.000247143               0.002985084               0.000029890              -0.000280456               0.001088503               0.000808047               0.000000000               0.000000000               0.000000000               0.000000000               0.000209568               0.002970461               0.000026756              -0.000292719               0.001087717               0.000794998               0.000000000               0.000000000               0.000000000               0.000000000               0.000174400               0.002962104               0.000025647              -0.000304862               0.001088979               0.000784116               0.000000000               0.000000000               0.000000000               0.000000000               0.000140632               0.002961776               0.000028908              -0.000317484               0.001093077               0.000775593               0.000000000               0.000000000               0.000000000               0.000000000               0.000108348               0.002967234               0.000027296              -0.000330273               0.001099159               0.000768886               0.000000000               0.000000000               0.000000000               0.000000000               0.000077872               0.002976651               0.000015294              -0.000342879               0.001106500               0.000763621               0.000000000               0.000000000               0.000000000               0.000000000               0.000048512               0.002992113               0.000004494              -0.000355821               0.001115968               0.000760147               0.000000000               0.000000000               0.000000000               0.000000000               0.000021650               0.003011411              -0.000000021              -0.000368307               0.001126562               0.000758256               0.000000000               0.000000000               0.000000000               0.000000000               0.000013051               0.003028020               0.000000724              -0.000373607               0.001133866               0.000760258               0.000000000               0.000000000               0.000000000               0.000000000               0.001004500               0.003949437               0.001493119              -0.000116993               0.001355463               0.001238470               0.000000000               0.000000000               0.000000000               0.000000000               0.000698133               0.003545862               0.001007156              -0.000181433               0.001242420               0.001060986               0.000000000               0.000000000               0.000000000               0.000000000               0.000534669               0.003353791               0.000514919              -0.000218723               0.001190827               0.000972104               0.000000000               0.000000000               0.000000000               0.000000000               0.000436295               0.003207658               0.000299055              -0.000237346               0.001148324               0.000910978               0.000000000               0.000000000               0.000000000               0.000000000               0.000366775               0.003106857               0.000191338              -0.000250816               0.001119214               0.000868398               0.000000000               0.000000000               0.000000000               0.000000000               0.000309685               0.003039452               0.000132896              -0.000263799               0.001101073               0.000837275               0.000000000               0.000000000               0.000000000               0.000000000               0.000262142               0.002994879               0.000100457              -0.000276056               0.001090302               0.000814246               0.000000000               0.000000000               0.000000000               0.000000000               0.000222362               0.002963602               0.000083218              -0.000287064               0.001083545               0.000796481               0.000000000               0.000000000               0.000000000               0.000000000               0.000187846               0.002944115               0.000074274              -0.000297571               0.001080552               0.000782981               0.000000000               0.000000000               0.000000000               0.000000000               0.000158026               0.002932613               0.000068645              -0.000307316               0.001079966               0.000772650               0.000000000               0.000000000               0.000000000               0.000000000               0.000128795               0.002926320               0.000061191              -0.000317491               0.001081260               0.000763769               0.000000000               0.000000000               0.000000000               0.000000000               0.000100879               0.002929988               0.000055410              -0.000328418               0.001086125               0.000757707               0.000000000               0.000000000               0.000000000               0.000000000               0.000073810               0.002940721               0.000048564              -0.000339910               0.001093534               0.000753624               0.000000000               0.000000000               0.000000000               0.000000000               0.000048437               0.002953527               0.000031880              -0.000351026               0.001101508               0.000750482               0.000000000               0.000000000               0.000000000               0.000000000               0.000028249               0.002967857               0.000014017              -0.000360388               0.001109405               0.000749017               0.000000000               0.000000000               0.000000000               0.000000000               0.000012368               0.002982914               0.000004420              -0.000368225               0.001117037               0.000748811               0.000000000               0.000000000               0.000000000               0.000000000               0.000007618               0.002992914               0.000002925              -0.000371257               0.001121380               0.000750124               0.000000000               0.000000000               0.000000000               0.000000000               0.001076469               0.003356335               0.001505770              -0.000015868               0.001124056               0.001108188               0.000000000               0.000000000               0.000000000               0.000000000               0.000705157               0.003153466               0.001048252              -0.000129750               0.001094395               0.000964644               0.000000000               0.000000000               0.000000000               0.000000000               0.000463014               0.003136867               0.000579804              -0.000218478               0.001118438               0.000899960               0.000000000               0.000000000               0.000000000               0.000000000               0.000355559               0.003065557               0.000370217              -0.000249860               0.001105129               0.000855269               0.000000000               0.000000000               0.000000000               0.000000000               0.000293879               0.003007120               0.000258321              -0.000265685               0.001090925               0.000825240               0.000000000               0.000000000               0.000000000               0.000000000               0.000247293               0.002964436               0.000194254              -0.000277819               0.001080742               0.000802923               0.000000000               0.000000000               0.000000000               0.000000000               0.000208060               0.002931527               0.000156876              -0.000288418               0.001073305               0.000784887               0.000000000               0.000000000               0.000000000               0.000000000               0.000176366               0.002907048               0.000133694              -0.000297243               0.001068087               0.000770844               0.000000000               0.000000000               0.000000000               0.000000000               0.000149579               0.002894737               0.000116901              -0.000305749               0.001066819               0.000761070               0.000000000               0.000000000               0.000000000               0.000000000               0.000128180               0.002892547               0.000103881              -0.000313500               0.001068673               0.000755173               0.000000000               0.000000000               0.000000000               0.000000000               0.000108874               0.002899588               0.000088313              -0.000321620               0.001073726               0.000752106               0.000000000               0.000000000               0.000000000               0.000000000               0.000086896               0.002911969               0.000073231              -0.000331410               0.001081117               0.000749707               0.000000000               0.000000000               0.000000000               0.000000000               0.000062247               0.002928882               0.000060470              -0.000342767               0.001090540               0.000747773               0.000000000               0.000000000               0.000000000               0.000000000               0.000039338               0.002946721               0.000041859              -0.000353588               0.001100093               0.000746506               0.000000000               0.000000000               0.000000000               0.000000000               0.000022675               0.002960369               0.000021940              -0.000361542               0.001107294               0.000745752               0.000000000               0.000000000               0.000000000               0.000000000               0.000011116               0.002967240               0.000009642              -0.000366735               0.001111315               0.000744580               0.000000000               0.000000000               0.000000000               0.000000000               0.000006684               0.002969513               0.000006197              -0.000368682               0.001112722               0.000744040               0.000000000               0.000000000               0.000000000               0.000000000               0.001101147               0.002784644               0.001434106               0.000064847               0.000906589               0.000971436               0.000000000               0.000000000               0.000000000               0.000000000               0.000693184               0.002780125               0.001047307              -0.000087573               0.000955890               0.000868317               0.000000000               0.000000000               0.000000000               0.000000000               0.000403953               0.002923037               0.000636728              -0.000213897               0.001045635               0.000831738               0.000000000               0.000000000               0.000000000               0.000000000               0.000300271               0.002924184               0.000437403              -0.000252921               0.001059025               0.000806104               0.000000000               0.000000000               0.000000000               0.000000000               0.000246569               0.002905676               0.000321452              -0.000270746               0.001058798               0.000788052               0.000000000               0.000000000               0.000000000               0.000000000               0.000209606               0.002885342               0.000251822              -0.000282065               0.001055793               0.000773728               0.000000000               0.000000000               0.000000000               0.000000000               0.000177028               0.002866029               0.000208203              -0.000291867               0.001052623               0.000760755               0.000000000               0.000000000               0.000000000               0.000000000               0.000153077               0.002855393               0.000175634              -0.000299520               0.001051628               0.000752108               0.000000000               0.000000000               0.000000000               0.000000000               0.000135502               0.002857281               0.000147632              -0.000306346               0.001054533               0.000748187               0.000000000               0.000000000               0.000000000               0.000000000               0.000120122               0.002869011               0.000124378              -0.000313580               0.001060854               0.000747274               0.000000000               0.000000000               0.000000000               0.000000000               0.000104890               0.002890381               0.000103010              -0.000321963               0.001070772               0.000748808               0.000000000               0.000000000               0.000000000               0.000000000               0.000085364               0.002914031               0.000082859              -0.000332241               0.001082081               0.000749840               0.000000000               0.000000000               0.000000000               0.000000000               0.000062759               0.002937981               0.000064655              -0.000343712               0.001093888               0.000750176               0.000000000               0.000000000               0.000000000               0.000000000               0.000040990               0.002956934               0.000044665              -0.000354245               0.001103717               0.000749472               0.000000000               0.000000000               0.000000000               0.000000000               0.000025986               0.002965567               0.000025377              -0.000360950               0.001108829               0.000747879               0.000000000               0.000000000               0.000000000               0.000000000               0.000013336               0.002963640               0.000011451              -0.000365453               0.001109688               0.000744235               0.000000000               0.000000000               0.000000000               0.000000000               0.000005586               0.002959206               0.000005066              -0.000367805               0.001108994               0.000741189               0.000000000               0.000000000               0.000000000               0.000000000               0.001095248               0.002280332               0.001306421               0.000125674               0.000718211               0.000843885               0.000000000               0.000000000               0.000000000               0.000000000               0.000685620               0.002443355               0.001026767              -0.000048313               0.000830548               0.000782235               0.000000000               0.000000000               0.000000000               0.000000000               0.000376688               0.002728867               0.000701036              -0.000199850               0.000976230               0.000776380               0.000000000               0.000000000               0.000000000               0.000000000               0.000281000               0.002802784               0.000509352              -0.000244973               0.001015910               0.000770937               0.000000000               0.000000000               0.000000000               0.000000000               0.000230625               0.002822980               0.000389523              -0.000266388               0.001029780               0.000763392               0.000000000               0.000000000               0.000000000               0.000000000               0.000197631               0.002827294               0.000312817              -0.000279299               0.001035522               0.000756222               0.000000000               0.000000000               0.000000000               0.000000000               0.000172023               0.002826482               0.000258808              -0.000288801               0.001038418               0.000749617               0.000000000               0.000000000               0.000000000               0.000000000               0.000153776               0.002832306               0.000216368              -0.000296371               0.001042883               0.000746511               0.000000000               0.000000000               0.000000000               0.000000000               0.000142668               0.002845408               0.000178476              -0.000302175               0.001049185               0.000747010               0.000000000               0.000000000               0.000000000               0.000000000               0.000131057               0.002866587               0.000146664              -0.000309176               0.001058578               0.000749402               0.000000000               0.000000000               0.000000000               0.000000000               0.000119138               0.002898404               0.000118076              -0.000317623               0.001071999               0.000754376               0.000000000               0.000000000               0.000000000               0.000000000               0.000103199               0.002932953               0.000091394              -0.000327919               0.001086947               0.000759029               0.000000000               0.000000000               0.000000000               0.000000000               0.000081174               0.002961167               0.000068462              -0.000339705               0.001100281               0.000760576               0.000000000               0.000000000               0.000000000               0.000000000               0.000057191               0.002977756               0.000047633              -0.000350772               0.001109499               0.000758728               0.000000000               0.000000000               0.000000000               0.000000000               0.000038415               0.002981089               0.000027465              -0.000358230               0.001113096               0.000754867               0.000000000               0.000000000               0.000000000               0.000000000               0.000019998               0.002974420               0.000010438              -0.000364302               0.001112898               0.000748595               0.000000000               0.000000000               0.000000000               0.000000000               0.000006422               0.002966841               0.000002085              -0.000368446               0.001111752               0.000743306               0.000000000               0.000000000               0.000000000               0.000000000               0.001050578               0.001787870               0.001153984               0.000170480               0.000539123               0.000709604               0.000000000               0.000000000               0.000000000               0.000000000               0.000693854               0.002053793               0.000998647               0.000003470               0.000683434               0.000686904               0.000000000               0.000000000               0.000000000               0.000000000               0.000392031               0.002447983               0.000779178              -0.000158987               0.000868982               0.000709995               0.000000000               0.000000000               0.000000000               0.000000000               0.000297422               0.002603375               0.000602621              -0.000213888               0.000939079               0.000725191               0.000000000               0.000000000               0.000000000               0.000000000               0.000251416               0.002678129               0.000478854              -0.000240485               0.000972862               0.000732378               0.000000000               0.000000000               0.000000000               0.000000000               0.000217495               0.002723012               0.000390746              -0.000258816               0.000993933               0.000735118               0.000000000               0.000000000               0.000000000               0.000000000               0.000191264               0.002750582               0.000325564              -0.000272098               0.001007551               0.000735453               0.000000000               0.000000000               0.000000000               0.000000000               0.000170722               0.002771989               0.000275238              -0.000282477               0.001018146               0.000735669               0.000000000               0.000000000               0.000000000               0.000000000               0.000159989               0.002795285               0.000232775              -0.000289414               0.001028224               0.000738810               0.000000000               0.000000000               0.000000000               0.000000000               0.000154121               0.002826699               0.000193775              -0.000295541               0.001040737               0.000745196               0.000000000               0.000000000               0.000000000               0.000000000               0.000143796               0.002868803               0.000155342              -0.000304676               0.001057817               0.000753141               0.000000000               0.000000000               0.000000000               0.000000000               0.000127856               0.002912874               0.000119733              -0.000316162               0.001076336               0.000760173               0.000000000               0.000000000               0.000000000               0.000000000               0.000105450               0.002948077               0.000089260              -0.000328965               0.001092337               0.000763372               0.000000000               0.000000000               0.000000000               0.000000000               0.000077945               0.002969096               0.000062887              -0.000341907               0.001103658               0.000761751               0.000000000               0.000000000               0.000000000               0.000000000               0.000048548               0.002975776               0.000036958              -0.000353766               0.001109837               0.000756072               0.000000000               0.000000000               0.000000000               0.000000000               0.000020956               0.002975867               0.000013271              -0.000364124               0.001113320               0.000749196               0.000000000               0.000000000               0.000000000               0.000000000               0.000003111               0.002972171               0.000000874              -0.000370354               0.001114165               0.000743811               0.000000000               0.000000000               0.000000000               0.000000000               0.000949598               0.001324222               0.000976120               0.000190569               0.000377880               0.000568448               0.000000000               0.000000000               0.000000000               0.000000000               0.000699526               0.001665207               0.000943618               0.000054170               0.000537006               0.000591176               0.000000000               0.000000000               0.000000000               0.000000000               0.000441554               0.002133204               0.000839134              -0.000101069               0.000744750               0.000643682               0.000000000               0.000000000               0.000000000               0.000000000               0.000348573               0.002365321               0.000694116              -0.000164950               0.000843416               0.000678465               0.000000000               0.000000000               0.000000000               0.000000000               0.000298700               0.002500966               0.000571975              -0.000200608               0.000900516               0.000699908               0.000000000               0.000000000               0.000000000               0.000000000               0.000262287               0.002593425               0.000476948              -0.000225820               0.000939740               0.000713919               0.000000000               0.000000000               0.000000000               0.000000000               0.000230956               0.002655852               0.000403515              -0.000245373               0.000967066               0.000721693               0.000000000               0.000000000               0.000000000               0.000000000               0.000206658               0.002700899               0.000348178              -0.000260115               0.000986996               0.000726881               0.000000000               0.000000000               0.000000000               0.000000000               0.000191458               0.002739350               0.000303601              -0.000270621               0.001003315               0.000732693               0.000000000               0.000000000               0.000000000               0.000000000               0.000183930               0.002783147               0.000258556              -0.000278919               0.001020679               0.000741761               0.000000000               0.000000000               0.000000000               0.000000000               0.000174575               0.002835979               0.000210235              -0.000289031               0.001041661               0.000752629               0.000000000               0.000000000               0.000000000               0.000000000               0.000157968               0.002888736               0.000165900              -0.000301853               0.001063520               0.000761667               0.000000000               0.000000000               0.000000000               0.000000000               0.000134182               0.002929031               0.000127742              -0.000315810               0.001081604               0.000765794               0.000000000               0.000000000               0.000000000               0.000000000               0.000102972               0.002953711               0.000093584              -0.000330599               0.001094760               0.000764161               0.000000000               0.000000000               0.000000000               0.000000000               0.000067087               0.002966680               0.000058829              -0.000345677               0.001104109               0.000758433               0.000000000               0.000000000               0.000000000               0.000000000               0.000027653               0.002973148               0.000025208              -0.000361273               0.001111464               0.000750191               0.000000000               0.000000000               0.000000000               0.000000000              -0.000001930               0.002968624               0.000005941              -0.000371801               0.001113465               0.000741664               0.000000000               0.000000000               0.000000000               0.000000000               0.000796658               0.000913630               0.000774698               0.000184541               0.000243026               0.000427567               0.000000000               0.000000000               0.000000000               0.000000000               0.000681590               0.001289057               0.000844910               0.000094462               0.000398193               0.000492656               0.000000000               0.000000000               0.000000000               0.000000000               0.000504922               0.001782584               0.000844924              -0.000033478               0.000605348               0.000571869               0.000000000               0.000000000               0.000000000               0.000000000               0.000425488               0.002075371               0.000743035              -0.000099864               0.000725071               0.000625207               0.000000000               0.000000000               0.000000000               0.000000000               0.000375476               0.002269241               0.000634582              -0.000142852               0.000804023               0.000661171               0.000000000               0.000000000               0.000000000               0.000000000               0.000335121               0.002412605               0.000541894              -0.000175905               0.000862829               0.000686923               0.000000000               0.000000000               0.000000000               0.000000000               0.000298561               0.002515150               0.000467156              -0.000202433               0.000905853               0.000703419               0.000000000               0.000000000               0.000000000               0.000000000               0.000266389               0.002590596               0.000411111              -0.000223928               0.000938166               0.000714238               0.000000000               0.000000000               0.000000000               0.000000000               0.000243218               0.002656206               0.000364528              -0.000240819               0.000965666               0.000724847               0.000000000               0.000000000               0.000000000               0.000000000               0.000227699               0.002718141               0.000316424              -0.000254380               0.000990831               0.000736451               0.000000000               0.000000000               0.000000000               0.000000000               0.000215829               0.002782036               0.000263234              -0.000266818               0.001016276               0.000749457               0.000000000               0.000000000               0.000000000               0.000000000               0.000198776               0.002846753               0.000214181              -0.000281303               0.001042676               0.000761373               0.000000000               0.000000000               0.000000000               0.000000000               0.000173617               0.002897946               0.000172056              -0.000297136               0.001065018               0.000767882               0.000000000               0.000000000               0.000000000               0.000000000               0.000142839               0.002933156               0.000133611              -0.000313079               0.001082069               0.000768990               0.000000000               0.000000000               0.000000000               0.000000000               0.000102090               0.002951947               0.000090815              -0.000330709               0.001094209               0.000763500               0.000000000               0.000000000               0.000000000               0.000000000               0.000050680               0.002964746               0.000043213              -0.000351587               0.001105435               0.000753847               0.000000000               0.000000000               0.000000000               0.000000000               0.000007586               0.002962100               0.000014128              -0.000367417               0.001109829               0.000742412               0.000000000               0.000000000               0.000000000               0.000000000               0.000608180               0.000581854               0.000569732               0.000155334               0.000142171               0.000297505               0.000000000               0.000000000               0.000000000               0.000000000               0.000642172               0.000946219               0.000709086               0.000122535               0.000274558               0.000397093               0.000000000               0.000000000               0.000000000               0.000000000               0.000574989               0.001423754               0.000787108               0.000037650               0.000462030               0.000499680               0.000000000               0.000000000               0.000000000               0.000000000               0.000522336               0.001752057               0.000730072              -0.000023132               0.000591723               0.000568592               0.000000000               0.000000000               0.000000000               0.000000000               0.000479247               0.001993422               0.000644354              -0.000069461               0.000687621               0.000618160               0.000000000               0.000000000               0.000000000               0.000000000               0.000434335               0.002181561               0.000562173              -0.000109820               0.000763786               0.000653966               0.000000000               0.000000000               0.000000000               0.000000000               0.000393751               0.002327008               0.000494043              -0.000143219               0.000823401               0.000680182               0.000000000               0.000000000               0.000000000               0.000000000               0.000352158               0.002437598               0.000440547              -0.000172640               0.000870071               0.000697431               0.000000000               0.000000000               0.000000000               0.000000000               0.000318043               0.002531224               0.000395621              -0.000197137               0.000909445               0.000712309               0.000000000               0.000000000               0.000000000               0.000000000               0.000294314               0.002616786               0.000348530              -0.000216730               0.000944497               0.000727767               0.000000000               0.000000000               0.000000000               0.000000000               0.000279019               0.002701393               0.000295945              -0.000233041               0.000978136               0.000745094               0.000000000               0.000000000               0.000000000               0.000000000               0.000262554               0.002781922               0.000245546              -0.000249282               0.001010392               0.000761110               0.000000000               0.000000000               0.000000000               0.000000000               0.000237968               0.002847137               0.000204613              -0.000266654               0.001037921               0.000771267               0.000000000               0.000000000               0.000000000               0.000000000               0.000207584               0.002896926               0.000165704              -0.000284271               0.001060389               0.000776118               0.000000000               0.000000000               0.000000000               0.000000000               0.000168229               0.002931078               0.000116612              -0.000303298               0.001078115               0.000774817               0.000000000               0.000000000               0.000000000               0.000000000               0.000118618               0.002957069               0.000058988              -0.000325151               0.001094063               0.000768912               0.000000000               0.000000000               0.000000000               0.000000000               0.000075075               0.002959353               0.000024002              -0.000341765               0.001100363               0.000758598               0.000000000               0.000000000               0.000000000               0.000000000               0.000413757               0.000339922               0.000382548               0.000112667               0.000075750               0.000188417               0.000000000               0.000000000               0.000000000               0.000000000               0.000591664               0.000659652               0.000545761               0.000139416               0.000173410               0.000312825               0.000000000               0.000000000               0.000000000               0.000000000               0.000642325               0.001087855               0.000663747               0.000104888               0.000327652               0.000432540               0.000000000               0.000000000               0.000000000               0.000000000               0.000627811               0.001430934               0.000643715               0.000056561               0.000458119               0.000514681               0.000000000               0.000000000               0.000000000               0.000000000               0.000596128               0.001704235               0.000583617               0.000010518               0.000564566               0.000575084               0.000000000               0.000000000               0.000000000               0.000000000               0.000554922               0.001929911               0.000519670              -0.000033144               0.000654345               0.000621202               0.000000000               0.000000000               0.000000000               0.000000000               0.000510167               0.002112055               0.000463699              -0.000072694               0.000728243               0.000655548               0.000000000               0.000000000               0.000000000               0.000000000               0.000461702               0.002251189               0.000417334              -0.000108260               0.000786476               0.000678215               0.000000000               0.000000000               0.000000000               0.000000000               0.000415195               0.002373963               0.000378774              -0.000141047               0.000838329               0.000697282               0.000000000               0.000000000               0.000000000               0.000000000               0.000378275               0.002490928               0.000338252              -0.000169512               0.000886805               0.000717293               0.000000000               0.000000000               0.000000000               0.000000000               0.000354322               0.002600183               0.000291974              -0.000192152               0.000930770               0.000738618               0.000000000               0.000000000               0.000000000               0.000000000               0.000336418               0.002696555               0.000245441              -0.000210912               0.000969147               0.000758235               0.000000000               0.000000000               0.000000000               0.000000000               0.000312715               0.002780480               0.000205980              -0.000230291               0.001003581               0.000773290               0.000000000               0.000000000               0.000000000               0.000000000               0.000282002               0.002850182               0.000169970              -0.000250521               0.001033558               0.000783037               0.000000000               0.000000000               0.000000000               0.000000000               0.000252556               0.002903401               0.000125573              -0.000268216               0.001057196               0.000788980               0.000000000               0.000000000               0.000000000               0.000000000               0.000223195               0.002945529               0.000067305              -0.000284492               0.001076664               0.000792172               0.000000000               0.000000000               0.000000000               0.000000000               0.000196284               0.002957501               0.000032099              -0.000296080               0.001084517               0.000788437               0.000000000               0.000000000               0.000000000               0.000000000               0.000238961               0.000176140               0.000228723               0.000067592               0.000036182               0.000103774               0.000000000               0.000000000               0.000000000               0.000000000               0.000540227               0.000444381               0.000368040               0.000147036               0.000099113               0.000246149               0.000000000               0.000000000               0.000000000               0.000000000               0.000698641               0.000815129               0.000478952               0.000160097               0.000218341               0.000378438               0.000000000               0.000000000               0.000000000               0.000000000               0.000725876               0.001155347               0.000481759               0.000127784               0.000342517               0.000470301               0.000000000               0.000000000               0.000000000               0.000000000               0.000707956               0.001445075               0.000446364               0.000084848               0.000453404               0.000538252               0.000000000               0.000000000               0.000000000               0.000000000               0.000672023               0.001693892               0.000403295               0.000040272               0.000551201               0.000591473               0.000000000               0.000000000               0.000000000               0.000000000               0.000623526               0.001900580               0.000364068              -0.000003751               0.000634771               0.000631020               0.000000000               0.000000000               0.000000000               0.000000000               0.000570977               0.002072430               0.000330879              -0.000044937               0.000705782               0.000660845               0.000000000               0.000000000               0.000000000               0.000000000               0.000516297               0.002227176               0.000302185              -0.000084786               0.000770647               0.000685861               0.000000000               0.000000000               0.000000000               0.000000000               0.000464875               0.002369711               0.000273813              -0.000121886               0.000830524               0.000708639               0.000000000               0.000000000               0.000000000               0.000000000               0.000428312               0.002499486               0.000242016              -0.000151819               0.000883760               0.000731941               0.000000000               0.000000000               0.000000000               0.000000000               0.000402927               0.002614610               0.000202950              -0.000175728               0.000930104               0.000754376               0.000000000               0.000000000               0.000000000               0.000000000               0.000378850               0.002718611               0.000166530              -0.000197757               0.000972113               0.000774356               0.000000000               0.000000000               0.000000000               0.000000000               0.000358654               0.002806723               0.000141221              -0.000216345               0.001007680               0.000791335               0.000000000               0.000000000               0.000000000               0.000000000               0.000345362               0.002874034               0.000112817              -0.000229743               0.001034583               0.000804840               0.000000000               0.000000000               0.000000000               0.000000000               0.000339294               0.002927919               0.000064839              -0.000238754               0.001055548               0.000816794               0.000000000               0.000000000               0.000000000               0.000000000               0.000333687               0.002950007               0.000034130              -0.000243618               0.001064532               0.000820914               0.000000000               0.000000000               0.000000000               0.000000000               0.000113458               0.000082589               0.000104180               0.000032223               0.000016788               0.000049011               0.000000000               0.000000000               0.000000000               0.000000000               0.000496506               0.000308112               0.000184529               0.000147674               0.000053478               0.000201152               0.000000000               0.000000000               0.000000000               0.000000000               0.000733198               0.000633483               0.000250854               0.000195762               0.000145905               0.000341667               0.000000000               0.000000000               0.000000000               0.000000000               0.000793524               0.000968027               0.000258217               0.000176566               0.000263817               0.000440383               0.000000000               0.000000000               0.000000000               0.000000000               0.000784715               0.001263468               0.000242822               0.000136333               0.000375708               0.000512041               0.000000000               0.000000000               0.000000000               0.000000000               0.000750959               0.001521244               0.000220501               0.000091453               0.000476592               0.000568045               0.000000000               0.000000000               0.000000000               0.000000000               0.000703916               0.001749242               0.000200559               0.000045313               0.000567970               0.000613283               0.000000000               0.000000000               0.000000000               0.000000000               0.000649410               0.001950668               0.000185015              -0.000000305               0.000650318               0.000650013               0.000000000               0.000000000               0.000000000               0.000000000               0.000590948               0.002124555               0.000169966              -0.000043964               0.000722833               0.000678869               0.000000000               0.000000000               0.000000000               0.000000000               0.000533477               0.002276561               0.000156210              -0.000084516               0.000787018               0.000702502               0.000000000               0.000000000               0.000000000               0.000000000               0.000484259               0.002417317               0.000140056              -0.000120567               0.000845953               0.000725386               0.000000000               0.000000000               0.000000000               0.000000000               0.000450180               0.002548918               0.000113850              -0.000149797               0.000899563               0.000749766               0.000000000               0.000000000               0.000000000               0.000000000               0.000433757               0.002668623               0.000091441              -0.000170919               0.000946505               0.000775587               0.000000000               0.000000000               0.000000000               0.000000000               0.000427751               0.002772803               0.000081533              -0.000186193               0.000986323               0.000800130               0.000000000               0.000000000               0.000000000               0.000000000               0.000426019               0.002858507               0.000069068              -0.000197556               0.001018678               0.000821122               0.000000000               0.000000000               0.000000000               0.000000000               0.000434381               0.002923093               0.000040786              -0.000202493               0.001041852               0.000839359               0.000000000               0.000000000               0.000000000               0.000000000               0.000447283               0.002951337               0.000021912              -0.000201186               0.001050831               0.000849645               0.000000000               0.000000000               0.000000000               0.000000000               0.000000000               0.000000000               0.000000000               0.000000000               0.000000000               0.000000000               0.000000000               0.000000000               0.000000000               0.000000000               0.000000000               0.000000000               0.000000000               0.000000000               0.000000000               0.000000000               0.000000000               0.000000000               0.000000000               0.000000000               0.000000000               0.000000000               0.000000000               0.000000000               0.000000000               0.000000000               0.000000000               0.000000000               0.000000000               0.000000000               0.000000000               0.000000000               0.000000000               0.000000000               0.000000000               0.000000000               0.000000000               0.000000000               0.000000000               0.000000000               0.000000000               0.000000000               0.000000000               0.000000000               0.000000000               0.000000000               0.000000000               0.000000000               0.000000000               0.000000000               0.000000000               0.000000000               0.000000000               0.000000000               0.000000000               0.000000000               0.000000000               0.000000000               0.000000000               0.000000000               0.000000000               0.000000000               0.000000000               0.000000000               0.000000000               0.000000000               0.000000000               0.000000000               0.000000000               0.000000000               0.000000000               0.000000000               0.000000000               0.000000000               0.000000000               0.000000000               0.000000000               0.000000000               0.000000000               0.000000000               0.000000000               0.000000000               0.000000000               0.000000000               0.000000000               0.000000000               0.000000000               0.000000000               0.000000000               0.000000000               0.000000000               0.000000000               0.000000000               0.000000000               0.000000000               0.000000000               0.000000000               0.000000000               0.000000000               0.000000000               0.000000000               0.000000000               0.000000000               0.000000000               0.000000000               0.000000000               0.000000000               0.000000000               0.000000000               0.000000000               0.000000000               0.000000000               0.000000000               0.000000000               0.000000000               0.000000000               0.000000000               0.000000000               0.000000000               0.000000000               0.000000000               0.000000000               0.000000000               0.000000000               0.000000000               0.000000000               0.000000000               0.000000000               0.000000000               0.000000000               0.000000000               0.000000000               0.000000000               0.000000000               0.000000000               0.000000000               0.000000000               0.000000000               0.000000000               0.000000000               0.000000000               0.000000000               0.000000000               0.000000000               0.000000000               0.000000000               0.000000000               0.000000000               0.000000000               0.000000000               0.000000000               0.000000000               0.000000000               0.000000000               0.000000000               0.000000000               0.000000000               0.000000000               0.000000000               0.000000000               0.000000000               0.000000000               0.000000000               0.000000000               0.000000000               0.000000000               0.000000000               0.000000000               0.000000000               0.000000000 </DataArray>
</PointData>
</Piece>
</UnstructuredGrid> </VTKFile>
