<?xml version="1.0"?>
<VTKFile type="UnstructuredGrid" version="0.1">
<UnstructuredGrid>
<Piece NumberOfPoints="      1156" NumberOfCells="      1024">
<Points>
<DataArray type="Float64"                                    Name="coordinates"                                                      NumberOfComponents=" 3" format="ascii">
              0.133000000               0.000000000               0.000000000               0.155937500               0.000000000               0.000000000               0.178875000               0.000000000               0.000000000               0.201812500               0.000000000               0.000000000               0.224750000               0.000000000               0.000000000               0.247687500               0.000000000               0.000000000               0.270625000               0.000000000               0.000000000               0.293562500               0.000000000               0.000000000               0.316500000               0.000000000               0.000000000               0.339437500               0.000000000               0.000000000               0.362375000               0.000000000               0.000000000               0.385312500               0.000000000               0.000000000               0.408250000               0.000000000               0.000000000               0.431187500               0.000000000               0.000000000               0.454125000               0.000000000               0.000000000               0.477062500               0.000000000               0.000000000               0.500000000               0.000000000               0.000000000               0.132359569               0.013036280               0.000000000               0.155337096               0.016127762               0.000000000               0.178314623               0.019219245               0.000000000               0.201292150               0.022310727               0.000000000               0.224269676               0.025402210               0.000000000               0.247247203               0.028493692               0.000000000               0.270224730               0.031585175               0.000000000               0.293202257               0.034676657               0.000000000               0.316179784               0.037768140               0.000000000               0.339157311               0.040859622               0.000000000               0.362134838               0.043951105               0.000000000               0.385112365               0.047042587               0.000000000               0.408089892               0.050134070               0.000000000               0.431067419               0.053225552               0.000000000               0.454044946               0.056317035               0.000000000               0.477022473               0.059408517               0.000000000               0.500000000               0.062500000               0.000000000               0.130444442               0.025947013               0.000000000               0.153541665               0.032137825               0.000000000               0.176638887               0.038328636               0.000000000               0.199736109               0.044519448               0.000000000               0.222833332               0.050710260               0.000000000               0.245930554               0.056901071               0.000000000               0.269027776               0.063091883               0.000000000               0.292124999               0.069282695               0.000000000               0.315222221               0.075473506               0.000000000               0.338319444               0.081664318               0.000000000               0.361416666               0.087855130               0.000000000               0.384513888               0.094045942               0.000000000               0.407611111               0.100236753               0.000000000               0.430708333               0.106427565               0.000000000               0.453805555               0.112618377               0.000000000               0.476902778               0.118809188               0.000000000               0.500000000               0.125000000               0.000000000               0.127273065               0.038607862               0.000000000               0.150568498               0.047913621               0.000000000               0.173863932               0.057219379               0.000000000               0.197159365               0.066525138               0.000000000               0.220454798               0.075830897               0.000000000               0.243750232               0.085136655               0.000000000               0.267045665               0.094442414               0.000000000               0.290341099               0.103748172               0.000000000               0.313636532               0.113053931               0.000000000               0.336931966               0.122359690               0.000000000               0.360227399               0.131665448               0.000000000               0.383522833               0.140971207               0.000000000               0.406818266               0.150276966               0.000000000               0.430113700               0.159582724               0.000000000               0.453409133               0.168888483               0.000000000               0.476704567               0.178194241               0.000000000               0.500000000               0.187500000               0.000000000               0.122875978               0.050896897               0.000000000               0.146446229               0.063340840               0.000000000               0.170016481               0.075784784               0.000000000               0.193586732               0.088228728               0.000000000               0.217156983               0.100672672               0.000000000               0.240727235               0.113116616               0.000000000               0.264297486               0.125560560               0.000000000               0.287867738               0.138004504               0.000000000               0.311437989               0.150448448               0.000000000               0.335008240               0.162892392               0.000000000               0.358578492               0.175336336               0.000000000               0.382148743               0.187780280               0.000000000               0.405718994               0.200224224               0.000000000               0.429289246               0.212668168               0.000000000               0.452859497               0.225112112               0.000000000               0.476429749               0.237556056               0.000000000               0.500000000               0.250000000               0.000000000               0.117295528               0.062695766               0.000000000               0.141214558               0.078308531               0.000000000               0.165133587               0.093921295               0.000000000               0.189052617               0.109534060               0.000000000               0.212971646               0.125146824               0.000000000               0.236890676               0.140759589               0.000000000               0.260809705               0.156372354               0.000000000               0.284728735               0.171985118               0.000000000               0.308647764               0.187597883               0.000000000               0.332566794               0.203210648               0.000000000               0.356485823               0.218823412               0.000000000               0.380404853               0.234436177               0.000000000               0.404323882               0.250048941               0.000000000               0.428242912               0.265661706               0.000000000               0.452161941               0.281274471               0.000000000               0.476080971               0.296887235               0.000000000               0.500000000               0.312500000               0.000000000               0.110585458               0.073890841               0.000000000               0.134923867               0.092710163               0.000000000               0.159262276               0.111529486               0.000000000               0.183600685               0.130348808               0.000000000               0.207939094               0.149168131               0.000000000               0.232277503               0.167987453               0.000000000               0.256615912               0.186806776               0.000000000               0.280954320               0.205626098               0.000000000               0.305292729               0.224445420               0.000000000               0.329631138               0.243264743               0.000000000               0.353969547               0.262084065               0.000000000               0.378307956               0.280903388               0.000000000               0.402646365               0.299722710               0.000000000               0.426984773               0.318542033               0.000000000               0.451323182               0.337361355               0.000000000               0.475661591               0.356180678               0.000000000               0.500000000               0.375000000               0.000000000               0.102810390               0.084374307               0.000000000               0.127634741               0.106444663               0.000000000               0.152459092               0.128515018               0.000000000               0.177283442               0.150585374               0.000000000               0.202107793               0.172655730               0.000000000               0.226932143               0.194726086               0.000000000               0.251756494               0.216796442               0.000000000               0.276580845               0.238866798               0.000000000               0.301405195               0.260937153               0.000000000               0.326229546               0.283007509               0.000000000               0.351053896               0.305077865               0.000000000               0.375878247               0.327148221               0.000000000               0.400702598               0.349218577               0.000000000               0.425526948               0.371288933               0.000000000               0.450351299               0.393359288               0.000000000               0.475175649               0.415429644               0.000000000               0.500000000               0.437500000               0.000000000               0.094045202               0.094045202               0.000000000               0.119417377               0.119417377               0.000000000               0.144789552               0.144789552               0.000000000               0.170161727               0.170161727               0.000000000               0.195533901               0.195533901               0.000000000               0.220906076               0.220906076               0.000000000               0.246278251               0.246278251               0.000000000               0.271650426               0.271650426               0.000000000               0.297022601               0.297022601               0.000000000               0.322394776               0.322394776               0.000000000               0.347766951               0.347766951               0.000000000               0.373139126               0.373139126               0.000000000               0.398511300               0.398511300               0.000000000               0.423883475               0.423883475               0.000000000               0.449255650               0.449255650               0.000000000               0.474627825               0.474627825               0.000000000               0.500000000               0.500000000               0.000000000               0.084374307               0.102810390               0.000000000               0.106444663               0.127634741               0.000000000               0.128515018               0.152459092               0.000000000               0.150585374               0.177283442               0.000000000               0.172655730               0.202107793               0.000000000               0.194726086               0.226932143               0.000000000               0.216796442               0.251756494               0.000000000               0.238866798               0.276580845               0.000000000               0.260937153               0.301405195               0.000000000               0.283007509               0.326229546               0.000000000               0.305077865               0.351053896               0.000000000               0.327148221               0.375878247               0.000000000               0.349218577               0.400702598               0.000000000               0.371288933               0.425526948               0.000000000               0.393359288               0.450351299               0.000000000               0.415429644               0.475175649               0.000000000               0.437500000               0.500000000               0.000000000               0.073890841               0.110585458               0.000000000               0.092710163               0.134923867               0.000000000               0.111529486               0.159262276               0.000000000               0.130348808               0.183600685               0.000000000               0.149168131               0.207939094               0.000000000               0.167987453               0.232277503               0.000000000               0.186806776               0.256615912               0.000000000               0.205626098               0.280954320               0.000000000               0.224445420               0.305292729               0.000000000               0.243264743               0.329631138               0.000000000               0.262084065               0.353969547               0.000000000               0.280903388               0.378307956               0.000000000               0.299722710               0.402646365               0.000000000               0.318542033               0.426984773               0.000000000               0.337361355               0.451323182               0.000000000               0.356180678               0.475661591               0.000000000               0.375000000               0.500000000               0.000000000               0.062695766               0.117295528               0.000000000               0.078308531               0.141214558               0.000000000               0.093921295               0.165133587               0.000000000               0.109534060               0.189052617               0.000000000               0.125146824               0.212971646               0.000000000               0.140759589               0.236890676               0.000000000               0.156372354               0.260809705               0.000000000               0.171985118               0.284728735               0.000000000               0.187597883               0.308647764               0.000000000               0.203210648               0.332566794               0.000000000               0.218823412               0.356485823               0.000000000               0.234436177               0.380404853               0.000000000               0.250048941               0.404323882               0.000000000               0.265661706               0.428242912               0.000000000               0.281274471               0.452161941               0.000000000               0.296887235               0.476080971               0.000000000               0.312500000               0.500000000               0.000000000               0.050896897               0.122875978               0.000000000               0.063340840               0.146446229               0.000000000               0.075784784               0.170016481               0.000000000               0.088228728               0.193586732               0.000000000               0.100672672               0.217156983               0.000000000               0.113116616               0.240727235               0.000000000               0.125560560               0.264297486               0.000000000               0.138004504               0.287867738               0.000000000               0.150448448               0.311437989               0.000000000               0.162892392               0.335008240               0.000000000               0.175336336               0.358578492               0.000000000               0.187780280               0.382148743               0.000000000               0.200224224               0.405718994               0.000000000               0.212668168               0.429289246               0.000000000               0.225112112               0.452859497               0.000000000               0.237556056               0.476429749               0.000000000               0.250000000               0.500000000               0.000000000               0.038607862               0.127273065               0.000000000               0.047913621               0.150568498               0.000000000               0.057219379               0.173863932               0.000000000               0.066525138               0.197159365               0.000000000               0.075830897               0.220454798               0.000000000               0.085136655               0.243750232               0.000000000               0.094442414               0.267045665               0.000000000               0.103748172               0.290341099               0.000000000               0.113053931               0.313636532               0.000000000               0.122359690               0.336931966               0.000000000               0.131665448               0.360227399               0.000000000               0.140971207               0.383522833               0.000000000               0.150276966               0.406818266               0.000000000               0.159582724               0.430113700               0.000000000               0.168888483               0.453409133               0.000000000               0.178194241               0.476704567               0.000000000               0.187500000               0.500000000               0.000000000               0.025947013               0.130444442               0.000000000               0.032137825               0.153541665               0.000000000               0.038328636               0.176638887               0.000000000               0.044519448               0.199736109               0.000000000               0.050710260               0.222833332               0.000000000               0.056901071               0.245930554               0.000000000               0.063091883               0.269027776               0.000000000               0.069282695               0.292124999               0.000000000               0.075473506               0.315222221               0.000000000               0.081664318               0.338319444               0.000000000               0.087855130               0.361416666               0.000000000               0.094045942               0.384513888               0.000000000               0.100236753               0.407611111               0.000000000               0.106427565               0.430708333               0.000000000               0.112618377               0.453805555               0.000000000               0.118809188               0.476902778               0.000000000               0.125000000               0.500000000               0.000000000               0.013036280               0.132359569               0.000000000               0.016127762               0.155337096               0.000000000               0.019219245               0.178314623               0.000000000               0.022310727               0.201292150               0.000000000               0.025402210               0.224269676               0.000000000               0.028493692               0.247247203               0.000000000               0.031585175               0.270224730               0.000000000               0.034676657               0.293202257               0.000000000               0.037768140               0.316179784               0.000000000               0.040859622               0.339157311               0.000000000               0.043951105               0.362134838               0.000000000               0.047042587               0.385112365               0.000000000               0.050134070               0.408089892               0.000000000               0.053225552               0.431067419               0.000000000               0.056317035               0.454044946               0.000000000               0.059408517               0.477022473               0.000000000               0.062500000               0.500000000               0.000000000               0.000000000               0.133000000               0.000000000               0.000000000               0.155937500               0.000000000               0.000000000               0.178875000               0.000000000               0.000000000               0.201812500               0.000000000               0.000000000               0.224750000               0.000000000               0.000000000               0.247687500               0.000000000               0.000000000               0.270625000               0.000000000               0.000000000               0.293562500               0.000000000               0.000000000               0.316500000               0.000000000               0.000000000               0.339437500               0.000000000               0.000000000               0.362375000               0.000000000               0.000000000               0.385312500               0.000000000               0.000000000               0.408250000               0.000000000               0.000000000               0.431187500               0.000000000               0.000000000               0.454125000               0.000000000               0.000000000               0.477062500               0.000000000               0.000000000               0.500000000               0.000000000               0.133000000               0.000000000               0.000000000               0.155937500               0.000000000               0.000000000               0.178875000               0.000000000               0.000000000               0.201812500               0.000000000               0.000000000               0.224750000               0.000000000               0.000000000               0.247687500               0.000000000               0.000000000               0.270625000               0.000000000               0.000000000               0.293562500               0.000000000               0.000000000               0.316500000               0.000000000               0.000000000               0.339437500               0.000000000               0.000000000               0.362375000               0.000000000               0.000000000               0.385312500               0.000000000               0.000000000               0.408250000               0.000000000               0.000000000               0.431187500               0.000000000               0.000000000               0.454125000               0.000000000               0.000000000               0.477062500               0.000000000               0.000000000               0.500000000               0.000000000               0.000000000               0.132359569              -0.013036280               0.000000000               0.155337096              -0.016127762               0.000000000               0.178314623              -0.019219245               0.000000000               0.201292150              -0.022310727               0.000000000               0.224269676              -0.025402210               0.000000000               0.247247203              -0.028493692               0.000000000               0.270224730              -0.031585175               0.000000000               0.293202257              -0.034676657               0.000000000               0.316179784              -0.037768140               0.000000000               0.339157311              -0.040859622               0.000000000               0.362134838              -0.043951105               0.000000000               0.385112365              -0.047042587               0.000000000               0.408089892              -0.050134070               0.000000000               0.431067419              -0.053225552               0.000000000               0.454044946              -0.056317035               0.000000000               0.477022473              -0.059408517               0.000000000               0.500000000              -0.062500000               0.000000000               0.130444442              -0.025947013               0.000000000               0.153541665              -0.032137825               0.000000000               0.176638887              -0.038328636               0.000000000               0.199736109              -0.044519448               0.000000000               0.222833332              -0.050710260               0.000000000               0.245930554              -0.056901071               0.000000000               0.269027776              -0.063091883               0.000000000               0.292124999              -0.069282695               0.000000000               0.315222221              -0.075473506               0.000000000               0.338319444              -0.081664318               0.000000000               0.361416666              -0.087855130               0.000000000               0.384513888              -0.094045942               0.000000000               0.407611111              -0.100236753               0.000000000               0.430708333              -0.106427565               0.000000000               0.453805555              -0.112618377               0.000000000               0.476902778              -0.118809188               0.000000000               0.500000000              -0.125000000               0.000000000               0.127273065              -0.038607862               0.000000000               0.150568498              -0.047913621               0.000000000               0.173863932              -0.057219379               0.000000000               0.197159365              -0.066525138               0.000000000               0.220454798              -0.075830897               0.000000000               0.243750232              -0.085136655               0.000000000               0.267045665              -0.094442414               0.000000000               0.290341099              -0.103748172               0.000000000               0.313636532              -0.113053931               0.000000000               0.336931966              -0.122359690               0.000000000               0.360227399              -0.131665448               0.000000000               0.383522833              -0.140971207               0.000000000               0.406818266              -0.150276966               0.000000000               0.430113700              -0.159582724               0.000000000               0.453409133              -0.168888483               0.000000000               0.476704567              -0.178194241               0.000000000               0.500000000              -0.187500000               0.000000000               0.122875978              -0.050896897               0.000000000               0.146446229              -0.063340840               0.000000000               0.170016481              -0.075784784               0.000000000               0.193586732              -0.088228728               0.000000000               0.217156983              -0.100672672               0.000000000               0.240727235              -0.113116616               0.000000000               0.264297486              -0.125560560               0.000000000               0.287867738              -0.138004504               0.000000000               0.311437989              -0.150448448               0.000000000               0.335008240              -0.162892392               0.000000000               0.358578492              -0.175336336               0.000000000               0.382148743              -0.187780280               0.000000000               0.405718994              -0.200224224               0.000000000               0.429289246              -0.212668168               0.000000000               0.452859497              -0.225112112               0.000000000               0.476429749              -0.237556056               0.000000000               0.500000000              -0.250000000               0.000000000               0.117295528              -0.062695766               0.000000000               0.141214558              -0.078308531               0.000000000               0.165133587              -0.093921295               0.000000000               0.189052617              -0.109534060               0.000000000               0.212971646              -0.125146824               0.000000000               0.236890676              -0.140759589               0.000000000               0.260809705              -0.156372354               0.000000000               0.284728735              -0.171985118               0.000000000               0.308647764              -0.187597883               0.000000000               0.332566794              -0.203210648               0.000000000               0.356485823              -0.218823412               0.000000000               0.380404853              -0.234436177               0.000000000               0.404323882              -0.250048941               0.000000000               0.428242912              -0.265661706               0.000000000               0.452161941              -0.281274471               0.000000000               0.476080971              -0.296887235               0.000000000               0.500000000              -0.312500000               0.000000000               0.110585458              -0.073890841               0.000000000               0.134923867              -0.092710163               0.000000000               0.159262276              -0.111529486               0.000000000               0.183600685              -0.130348808               0.000000000               0.207939094              -0.149168131               0.000000000               0.232277503              -0.167987453               0.000000000               0.256615912              -0.186806776               0.000000000               0.280954320              -0.205626098               0.000000000               0.305292729              -0.224445420               0.000000000               0.329631138              -0.243264743               0.000000000               0.353969547              -0.262084065               0.000000000               0.378307956              -0.280903388               0.000000000               0.402646365              -0.299722710               0.000000000               0.426984773              -0.318542033               0.000000000               0.451323182              -0.337361355               0.000000000               0.475661591              -0.356180678               0.000000000               0.500000000              -0.375000000               0.000000000               0.102810390              -0.084374307               0.000000000               0.127634741              -0.106444663               0.000000000               0.152459092              -0.128515018               0.000000000               0.177283442              -0.150585374               0.000000000               0.202107793              -0.172655730               0.000000000               0.226932143              -0.194726086               0.000000000               0.251756494              -0.216796442               0.000000000               0.276580845              -0.238866798               0.000000000               0.301405195              -0.260937153               0.000000000               0.326229546              -0.283007509               0.000000000               0.351053896              -0.305077865               0.000000000               0.375878247              -0.327148221               0.000000000               0.400702598              -0.349218577               0.000000000               0.425526948              -0.371288933               0.000000000               0.450351299              -0.393359288               0.000000000               0.475175649              -0.415429644               0.000000000               0.500000000              -0.437500000               0.000000000               0.094045202              -0.094045202               0.000000000               0.119417377              -0.119417377               0.000000000               0.144789552              -0.144789552               0.000000000               0.170161727              -0.170161727               0.000000000               0.195533901              -0.195533901               0.000000000               0.220906076              -0.220906076               0.000000000               0.246278251              -0.246278251               0.000000000               0.271650426              -0.271650426               0.000000000               0.297022601              -0.297022601               0.000000000               0.322394776              -0.322394776               0.000000000               0.347766951              -0.347766951               0.000000000               0.373139126              -0.373139126               0.000000000               0.398511300              -0.398511300               0.000000000               0.423883475              -0.423883475               0.000000000               0.449255650              -0.449255650               0.000000000               0.474627825              -0.474627825               0.000000000               0.500000000              -0.500000000               0.000000000               0.084374307              -0.102810390               0.000000000               0.106444663              -0.127634741               0.000000000               0.128515018              -0.152459092               0.000000000               0.150585374              -0.177283442               0.000000000               0.172655730              -0.202107793               0.000000000               0.194726086              -0.226932143               0.000000000               0.216796442              -0.251756494               0.000000000               0.238866798              -0.276580845               0.000000000               0.260937153              -0.301405195               0.000000000               0.283007509              -0.326229546               0.000000000               0.305077865              -0.351053896               0.000000000               0.327148221              -0.375878247               0.000000000               0.349218577              -0.400702598               0.000000000               0.371288933              -0.425526948               0.000000000               0.393359288              -0.450351299               0.000000000               0.415429644              -0.475175649               0.000000000               0.437500000              -0.500000000               0.000000000               0.073890841              -0.110585458               0.000000000               0.092710163              -0.134923867               0.000000000               0.111529486              -0.159262276               0.000000000               0.130348808              -0.183600685               0.000000000               0.149168131              -0.207939094               0.000000000               0.167987453              -0.232277503               0.000000000               0.186806776              -0.256615912               0.000000000               0.205626098              -0.280954320               0.000000000               0.224445420              -0.305292729               0.000000000               0.243264743              -0.329631138               0.000000000               0.262084065              -0.353969547               0.000000000               0.280903388              -0.378307956               0.000000000               0.299722710              -0.402646365               0.000000000               0.318542033              -0.426984773               0.000000000               0.337361355              -0.451323182               0.000000000               0.356180678              -0.475661591               0.000000000               0.375000000              -0.500000000               0.000000000               0.062695766              -0.117295528               0.000000000               0.078308531              -0.141214558               0.000000000               0.093921295              -0.165133587               0.000000000               0.109534060              -0.189052617               0.000000000               0.125146824              -0.212971646               0.000000000               0.140759589              -0.236890676               0.000000000               0.156372354              -0.260809705               0.000000000               0.171985118              -0.284728735               0.000000000               0.187597883              -0.308647764               0.000000000               0.203210648              -0.332566794               0.000000000               0.218823412              -0.356485823               0.000000000               0.234436177              -0.380404853               0.000000000               0.250048941              -0.404323882               0.000000000               0.265661706              -0.428242912               0.000000000               0.281274471              -0.452161941               0.000000000               0.296887235              -0.476080971               0.000000000               0.312500000              -0.500000000               0.000000000               0.050896897              -0.122875978               0.000000000               0.063340840              -0.146446229               0.000000000               0.075784784              -0.170016481               0.000000000               0.088228728              -0.193586732               0.000000000               0.100672672              -0.217156983               0.000000000               0.113116616              -0.240727235               0.000000000               0.125560560              -0.264297486               0.000000000               0.138004504              -0.287867738               0.000000000               0.150448448              -0.311437989               0.000000000               0.162892392              -0.335008240               0.000000000               0.175336336              -0.358578492               0.000000000               0.187780280              -0.382148743               0.000000000               0.200224224              -0.405718994               0.000000000               0.212668168              -0.429289246               0.000000000               0.225112112              -0.452859497               0.000000000               0.237556056              -0.476429749               0.000000000               0.250000000              -0.500000000               0.000000000               0.038607862              -0.127273065               0.000000000               0.047913621              -0.150568498               0.000000000               0.057219379              -0.173863932               0.000000000               0.066525138              -0.197159365               0.000000000               0.075830897              -0.220454798               0.000000000               0.085136655              -0.243750232               0.000000000               0.094442414              -0.267045665               0.000000000               0.103748172              -0.290341099               0.000000000               0.113053931              -0.313636532               0.000000000               0.122359690              -0.336931966               0.000000000               0.131665448              -0.360227399               0.000000000               0.140971207              -0.383522833               0.000000000               0.150276966              -0.406818266               0.000000000               0.159582724              -0.430113700               0.000000000               0.168888483              -0.453409133               0.000000000               0.178194241              -0.476704567               0.000000000               0.187500000              -0.500000000               0.000000000               0.025947013              -0.130444442               0.000000000               0.032137825              -0.153541665               0.000000000               0.038328636              -0.176638887               0.000000000               0.044519448              -0.199736109               0.000000000               0.050710260              -0.222833332               0.000000000               0.056901071              -0.245930554               0.000000000               0.063091883              -0.269027776               0.000000000               0.069282695              -0.292124999               0.000000000               0.075473506              -0.315222221               0.000000000               0.081664318              -0.338319444               0.000000000               0.087855130              -0.361416666               0.000000000               0.094045942              -0.384513888               0.000000000               0.100236753              -0.407611111               0.000000000               0.106427565              -0.430708333               0.000000000               0.112618377              -0.453805555               0.000000000               0.118809188              -0.476902778               0.000000000               0.125000000              -0.500000000               0.000000000               0.013036280              -0.132359569               0.000000000               0.016127762              -0.155337096               0.000000000               0.019219245              -0.178314623               0.000000000               0.022310727              -0.201292150               0.000000000               0.025402210              -0.224269676               0.000000000               0.028493692              -0.247247203               0.000000000               0.031585175              -0.270224730               0.000000000               0.034676657              -0.293202257               0.000000000               0.037768140              -0.316179784               0.000000000               0.040859622              -0.339157311               0.000000000               0.043951105              -0.362134838               0.000000000               0.047042587              -0.385112365               0.000000000               0.050134070              -0.408089892               0.000000000               0.053225552              -0.431067419               0.000000000               0.056317035              -0.454044946               0.000000000               0.059408517              -0.477022473               0.000000000               0.062500000              -0.500000000               0.000000000               0.000000000              -0.133000000               0.000000000               0.000000000              -0.155937500               0.000000000               0.000000000              -0.178875000               0.000000000               0.000000000              -0.201812500               0.000000000               0.000000000              -0.224750000               0.000000000               0.000000000              -0.247687500               0.000000000               0.000000000              -0.270625000               0.000000000               0.000000000              -0.293562500               0.000000000               0.000000000              -0.316500000               0.000000000               0.000000000              -0.339437500               0.000000000               0.000000000              -0.362375000               0.000000000               0.000000000              -0.385312500               0.000000000               0.000000000              -0.408250000               0.000000000               0.000000000              -0.431187500               0.000000000               0.000000000              -0.454125000               0.000000000               0.000000000              -0.477062500               0.000000000               0.000000000              -0.500000000               0.000000000              -0.133000000               0.000000000               0.000000000              -0.155937500               0.000000000               0.000000000              -0.178875000               0.000000000               0.000000000              -0.201812500               0.000000000               0.000000000              -0.224750000               0.000000000               0.000000000              -0.247687500               0.000000000               0.000000000              -0.270625000               0.000000000               0.000000000              -0.293562500               0.000000000               0.000000000              -0.316500000               0.000000000               0.000000000              -0.339437500               0.000000000               0.000000000              -0.362375000               0.000000000               0.000000000              -0.385312500               0.000000000               0.000000000              -0.408250000               0.000000000               0.000000000              -0.431187500               0.000000000               0.000000000              -0.454125000               0.000000000               0.000000000              -0.477062500               0.000000000               0.000000000              -0.500000000               0.000000000               0.000000000              -0.132359569              -0.013036280               0.000000000              -0.155337096              -0.016127762               0.000000000              -0.178314623              -0.019219245               0.000000000              -0.201292150              -0.022310727               0.000000000              -0.224269676              -0.025402210               0.000000000              -0.247247203              -0.028493692               0.000000000              -0.270224730              -0.031585175               0.000000000              -0.293202257              -0.034676657               0.000000000              -0.316179784              -0.037768140               0.000000000              -0.339157311              -0.040859622               0.000000000              -0.362134838              -0.043951105               0.000000000              -0.385112365              -0.047042587               0.000000000              -0.408089892              -0.050134070               0.000000000              -0.431067419              -0.053225552               0.000000000              -0.454044946              -0.056317035               0.000000000              -0.477022473              -0.059408517               0.000000000              -0.500000000              -0.062500000               0.000000000              -0.130444442              -0.025947013               0.000000000              -0.153541665              -0.032137825               0.000000000              -0.176638887              -0.038328636               0.000000000              -0.199736109              -0.044519448               0.000000000              -0.222833332              -0.050710260               0.000000000              -0.245930554              -0.056901071               0.000000000              -0.269027776              -0.063091883               0.000000000              -0.292124999              -0.069282695               0.000000000              -0.315222221              -0.075473506               0.000000000              -0.338319444              -0.081664318               0.000000000              -0.361416666              -0.087855130               0.000000000              -0.384513888              -0.094045942               0.000000000              -0.407611111              -0.100236753               0.000000000              -0.430708333              -0.106427565               0.000000000              -0.453805555              -0.112618377               0.000000000              -0.476902778              -0.118809188               0.000000000              -0.500000000              -0.125000000               0.000000000              -0.127273065              -0.038607862               0.000000000              -0.150568498              -0.047913621               0.000000000              -0.173863932              -0.057219379               0.000000000              -0.197159365              -0.066525138               0.000000000              -0.220454798              -0.075830897               0.000000000              -0.243750232              -0.085136655               0.000000000              -0.267045665              -0.094442414               0.000000000              -0.290341099              -0.103748172               0.000000000              -0.313636532              -0.113053931               0.000000000              -0.336931966              -0.122359690               0.000000000              -0.360227399              -0.131665448               0.000000000              -0.383522833              -0.140971207               0.000000000              -0.406818266              -0.150276966               0.000000000              -0.430113700              -0.159582724               0.000000000              -0.453409133              -0.168888483               0.000000000              -0.476704567              -0.178194241               0.000000000              -0.500000000              -0.187500000               0.000000000              -0.122875978              -0.050896897               0.000000000              -0.146446229              -0.063340840               0.000000000              -0.170016481              -0.075784784               0.000000000              -0.193586732              -0.088228728               0.000000000              -0.217156983              -0.100672672               0.000000000              -0.240727235              -0.113116616               0.000000000              -0.264297486              -0.125560560               0.000000000              -0.287867738              -0.138004504               0.000000000              -0.311437989              -0.150448448               0.000000000              -0.335008240              -0.162892392               0.000000000              -0.358578492              -0.175336336               0.000000000              -0.382148743              -0.187780280               0.000000000              -0.405718994              -0.200224224               0.000000000              -0.429289246              -0.212668168               0.000000000              -0.452859497              -0.225112112               0.000000000              -0.476429749              -0.237556056               0.000000000              -0.500000000              -0.250000000               0.000000000              -0.117295528              -0.062695766               0.000000000              -0.141214558              -0.078308531               0.000000000              -0.165133587              -0.093921295               0.000000000              -0.189052617              -0.109534060               0.000000000              -0.212971646              -0.125146824               0.000000000              -0.236890676              -0.140759589               0.000000000              -0.260809705              -0.156372354               0.000000000              -0.284728735              -0.171985118               0.000000000              -0.308647764              -0.187597883               0.000000000              -0.332566794              -0.203210648               0.000000000              -0.356485823              -0.218823412               0.000000000              -0.380404853              -0.234436177               0.000000000              -0.404323882              -0.250048941               0.000000000              -0.428242912              -0.265661706               0.000000000              -0.452161941              -0.281274471               0.000000000              -0.476080971              -0.296887235               0.000000000              -0.500000000              -0.312500000               0.000000000              -0.110585458              -0.073890841               0.000000000              -0.134923867              -0.092710163               0.000000000              -0.159262276              -0.111529486               0.000000000              -0.183600685              -0.130348808               0.000000000              -0.207939094              -0.149168131               0.000000000              -0.232277503              -0.167987453               0.000000000              -0.256615912              -0.186806776               0.000000000              -0.280954320              -0.205626098               0.000000000              -0.305292729              -0.224445420               0.000000000              -0.329631138              -0.243264743               0.000000000              -0.353969547              -0.262084065               0.000000000              -0.378307956              -0.280903388               0.000000000              -0.402646365              -0.299722710               0.000000000              -0.426984773              -0.318542033               0.000000000              -0.451323182              -0.337361355               0.000000000              -0.475661591              -0.356180678               0.000000000              -0.500000000              -0.375000000               0.000000000              -0.102810390              -0.084374307               0.000000000              -0.127634741              -0.106444663               0.000000000              -0.152459092              -0.128515018               0.000000000              -0.177283442              -0.150585374               0.000000000              -0.202107793              -0.172655730               0.000000000              -0.226932143              -0.194726086               0.000000000              -0.251756494              -0.216796442               0.000000000              -0.276580845              -0.238866798               0.000000000              -0.301405195              -0.260937153               0.000000000              -0.326229546              -0.283007509               0.000000000              -0.351053896              -0.305077865               0.000000000              -0.375878247              -0.327148221               0.000000000              -0.400702598              -0.349218577               0.000000000              -0.425526948              -0.371288933               0.000000000              -0.450351299              -0.393359288               0.000000000              -0.475175649              -0.415429644               0.000000000              -0.500000000              -0.437500000               0.000000000              -0.094045202              -0.094045202               0.000000000              -0.119417377              -0.119417377               0.000000000              -0.144789552              -0.144789552               0.000000000              -0.170161727              -0.170161727               0.000000000              -0.195533901              -0.195533901               0.000000000              -0.220906076              -0.220906076               0.000000000              -0.246278251              -0.246278251               0.000000000              -0.271650426              -0.271650426               0.000000000              -0.297022601              -0.297022601               0.000000000              -0.322394776              -0.322394776               0.000000000              -0.347766951              -0.347766951               0.000000000              -0.373139126              -0.373139126               0.000000000              -0.398511300              -0.398511300               0.000000000              -0.423883475              -0.423883475               0.000000000              -0.449255650              -0.449255650               0.000000000              -0.474627825              -0.474627825               0.000000000              -0.500000000              -0.500000000               0.000000000              -0.084374307              -0.102810390               0.000000000              -0.106444663              -0.127634741               0.000000000              -0.128515018              -0.152459092               0.000000000              -0.150585374              -0.177283442               0.000000000              -0.172655730              -0.202107793               0.000000000              -0.194726086              -0.226932143               0.000000000              -0.216796442              -0.251756494               0.000000000              -0.238866798              -0.276580845               0.000000000              -0.260937153              -0.301405195               0.000000000              -0.283007509              -0.326229546               0.000000000              -0.305077865              -0.351053896               0.000000000              -0.327148221              -0.375878247               0.000000000              -0.349218577              -0.400702598               0.000000000              -0.371288933              -0.425526948               0.000000000              -0.393359288              -0.450351299               0.000000000              -0.415429644              -0.475175649               0.000000000              -0.437500000              -0.500000000               0.000000000              -0.073890841              -0.110585458               0.000000000              -0.092710163              -0.134923867               0.000000000              -0.111529486              -0.159262276               0.000000000              -0.130348808              -0.183600685               0.000000000              -0.149168131              -0.207939094               0.000000000              -0.167987453              -0.232277503               0.000000000              -0.186806776              -0.256615912               0.000000000              -0.205626098              -0.280954320               0.000000000              -0.224445420              -0.305292729               0.000000000              -0.243264743              -0.329631138               0.000000000              -0.262084065              -0.353969547               0.000000000              -0.280903388              -0.378307956               0.000000000              -0.299722710              -0.402646365               0.000000000              -0.318542033              -0.426984773               0.000000000              -0.337361355              -0.451323182               0.000000000              -0.356180678              -0.475661591               0.000000000              -0.375000000              -0.500000000               0.000000000              -0.062695766              -0.117295528               0.000000000              -0.078308531              -0.141214558               0.000000000              -0.093921295              -0.165133587               0.000000000              -0.109534060              -0.189052617               0.000000000              -0.125146824              -0.212971646               0.000000000              -0.140759589              -0.236890676               0.000000000              -0.156372354              -0.260809705               0.000000000              -0.171985118              -0.284728735               0.000000000              -0.187597883              -0.308647764               0.000000000              -0.203210648              -0.332566794               0.000000000              -0.218823412              -0.356485823               0.000000000              -0.234436177              -0.380404853               0.000000000              -0.250048941              -0.404323882               0.000000000              -0.265661706              -0.428242912               0.000000000              -0.281274471              -0.452161941               0.000000000              -0.296887235              -0.476080971               0.000000000              -0.312500000              -0.500000000               0.000000000              -0.050896897              -0.122875978               0.000000000              -0.063340840              -0.146446229               0.000000000              -0.075784784              -0.170016481               0.000000000              -0.088228728              -0.193586732               0.000000000              -0.100672672              -0.217156983               0.000000000              -0.113116616              -0.240727235               0.000000000              -0.125560560              -0.264297486               0.000000000              -0.138004504              -0.287867738               0.000000000              -0.150448448              -0.311437989               0.000000000              -0.162892392              -0.335008240               0.000000000              -0.175336336              -0.358578492               0.000000000              -0.187780280              -0.382148743               0.000000000              -0.200224224              -0.405718994               0.000000000              -0.212668168              -0.429289246               0.000000000              -0.225112112              -0.452859497               0.000000000              -0.237556056              -0.476429749               0.000000000              -0.250000000              -0.500000000               0.000000000              -0.038607862              -0.127273065               0.000000000              -0.047913621              -0.150568498               0.000000000              -0.057219379              -0.173863932               0.000000000              -0.066525138              -0.197159365               0.000000000              -0.075830897              -0.220454798               0.000000000              -0.085136655              -0.243750232               0.000000000              -0.094442414              -0.267045665               0.000000000              -0.103748172              -0.290341099               0.000000000              -0.113053931              -0.313636532               0.000000000              -0.122359690              -0.336931966               0.000000000              -0.131665448              -0.360227399               0.000000000              -0.140971207              -0.383522833               0.000000000              -0.150276966              -0.406818266               0.000000000              -0.159582724              -0.430113700               0.000000000              -0.168888483              -0.453409133               0.000000000              -0.178194241              -0.476704567               0.000000000              -0.187500000              -0.500000000               0.000000000              -0.025947013              -0.130444442               0.000000000              -0.032137825              -0.153541665               0.000000000              -0.038328636              -0.176638887               0.000000000              -0.044519448              -0.199736109               0.000000000              -0.050710260              -0.222833332               0.000000000              -0.056901071              -0.245930554               0.000000000              -0.063091883              -0.269027776               0.000000000              -0.069282695              -0.292124999               0.000000000              -0.075473506              -0.315222221               0.000000000              -0.081664318              -0.338319444               0.000000000              -0.087855130              -0.361416666               0.000000000              -0.094045942              -0.384513888               0.000000000              -0.100236753              -0.407611111               0.000000000              -0.106427565              -0.430708333               0.000000000              -0.112618377              -0.453805555               0.000000000              -0.118809188              -0.476902778               0.000000000              -0.125000000              -0.500000000               0.000000000              -0.013036280              -0.132359569               0.000000000              -0.016127762              -0.155337096               0.000000000              -0.019219245              -0.178314623               0.000000000              -0.022310727              -0.201292150               0.000000000              -0.025402210              -0.224269676               0.000000000              -0.028493692              -0.247247203               0.000000000              -0.031585175              -0.270224730               0.000000000              -0.034676657              -0.293202257               0.000000000              -0.037768140              -0.316179784               0.000000000              -0.040859622              -0.339157311               0.000000000              -0.043951105              -0.362134838               0.000000000              -0.047042587              -0.385112365               0.000000000              -0.050134070              -0.408089892               0.000000000              -0.053225552              -0.431067419               0.000000000              -0.056317035              -0.454044946               0.000000000              -0.059408517              -0.477022473               0.000000000              -0.062500000              -0.500000000               0.000000000               0.000000000              -0.133000000               0.000000000               0.000000000              -0.155937500               0.000000000               0.000000000              -0.178875000               0.000000000               0.000000000              -0.201812500               0.000000000               0.000000000              -0.224750000               0.000000000               0.000000000              -0.247687500               0.000000000               0.000000000              -0.270625000               0.000000000               0.000000000              -0.293562500               0.000000000               0.000000000              -0.316500000               0.000000000               0.000000000              -0.339437500               0.000000000               0.000000000              -0.362375000               0.000000000               0.000000000              -0.385312500               0.000000000               0.000000000              -0.408250000               0.000000000               0.000000000              -0.431187500               0.000000000               0.000000000              -0.454125000               0.000000000               0.000000000              -0.477062500               0.000000000               0.000000000              -0.500000000               0.000000000              -0.133000000               0.000000000               0.000000000              -0.155937500               0.000000000               0.000000000              -0.178875000               0.000000000               0.000000000              -0.201812500               0.000000000               0.000000000              -0.224750000               0.000000000               0.000000000              -0.247687500               0.000000000               0.000000000              -0.270625000               0.000000000               0.000000000              -0.293562500               0.000000000               0.000000000              -0.316500000               0.000000000               0.000000000              -0.339437500               0.000000000               0.000000000              -0.362375000               0.000000000               0.000000000              -0.385312500               0.000000000               0.000000000              -0.408250000               0.000000000               0.000000000              -0.431187500               0.000000000               0.000000000              -0.454125000               0.000000000               0.000000000              -0.477062500               0.000000000               0.000000000              -0.500000000               0.000000000               0.000000000              -0.132359569               0.013036280               0.000000000              -0.155337096               0.016127762               0.000000000              -0.178314623               0.019219245               0.000000000              -0.201292150               0.022310727               0.000000000              -0.224269676               0.025402210               0.000000000              -0.247247203               0.028493692               0.000000000              -0.270224730               0.031585175               0.000000000              -0.293202257               0.034676657               0.000000000              -0.316179784               0.037768140               0.000000000              -0.339157311               0.040859622               0.000000000              -0.362134838               0.043951105               0.000000000              -0.385112365               0.047042587               0.000000000              -0.408089892               0.050134070               0.000000000              -0.431067419               0.053225552               0.000000000              -0.454044946               0.056317035               0.000000000              -0.477022473               0.059408517               0.000000000              -0.500000000               0.062500000               0.000000000              -0.130444442               0.025947013               0.000000000              -0.153541665               0.032137825               0.000000000              -0.176638887               0.038328636               0.000000000              -0.199736109               0.044519448               0.000000000              -0.222833332               0.050710260               0.000000000              -0.245930554               0.056901071               0.000000000              -0.269027776               0.063091883               0.000000000              -0.292124999               0.069282695               0.000000000              -0.315222221               0.075473506               0.000000000              -0.338319444               0.081664318               0.000000000              -0.361416666               0.087855130               0.000000000              -0.384513888               0.094045942               0.000000000              -0.407611111               0.100236753               0.000000000              -0.430708333               0.106427565               0.000000000              -0.453805555               0.112618377               0.000000000              -0.476902778               0.118809188               0.000000000              -0.500000000               0.125000000               0.000000000              -0.127273065               0.038607862               0.000000000              -0.150568498               0.047913621               0.000000000              -0.173863932               0.057219379               0.000000000              -0.197159365               0.066525138               0.000000000              -0.220454798               0.075830897               0.000000000              -0.243750232               0.085136655               0.000000000              -0.267045665               0.094442414               0.000000000              -0.290341099               0.103748172               0.000000000              -0.313636532               0.113053931               0.000000000              -0.336931966               0.122359690               0.000000000              -0.360227399               0.131665448               0.000000000              -0.383522833               0.140971207               0.000000000              -0.406818266               0.150276966               0.000000000              -0.430113700               0.159582724               0.000000000              -0.453409133               0.168888483               0.000000000              -0.476704567               0.178194241               0.000000000              -0.500000000               0.187500000               0.000000000              -0.122875978               0.050896897               0.000000000              -0.146446229               0.063340840               0.000000000              -0.170016481               0.075784784               0.000000000              -0.193586732               0.088228728               0.000000000              -0.217156983               0.100672672               0.000000000              -0.240727235               0.113116616               0.000000000              -0.264297486               0.125560560               0.000000000              -0.287867738               0.138004504               0.000000000              -0.311437989               0.150448448               0.000000000              -0.335008240               0.162892392               0.000000000              -0.358578492               0.175336336               0.000000000              -0.382148743               0.187780280               0.000000000              -0.405718994               0.200224224               0.000000000              -0.429289246               0.212668168               0.000000000              -0.452859497               0.225112112               0.000000000              -0.476429749               0.237556056               0.000000000              -0.500000000               0.250000000               0.000000000              -0.117295528               0.062695766               0.000000000              -0.141214558               0.078308531               0.000000000              -0.165133587               0.093921295               0.000000000              -0.189052617               0.109534060               0.000000000              -0.212971646               0.125146824               0.000000000              -0.236890676               0.140759589               0.000000000              -0.260809705               0.156372354               0.000000000              -0.284728735               0.171985118               0.000000000              -0.308647764               0.187597883               0.000000000              -0.332566794               0.203210648               0.000000000              -0.356485823               0.218823412               0.000000000              -0.380404853               0.234436177               0.000000000              -0.404323882               0.250048941               0.000000000              -0.428242912               0.265661706               0.000000000              -0.452161941               0.281274471               0.000000000              -0.476080971               0.296887235               0.000000000              -0.500000000               0.312500000               0.000000000              -0.110585458               0.073890841               0.000000000              -0.134923867               0.092710163               0.000000000              -0.159262276               0.111529486               0.000000000              -0.183600685               0.130348808               0.000000000              -0.207939094               0.149168131               0.000000000              -0.232277503               0.167987453               0.000000000              -0.256615912               0.186806776               0.000000000              -0.280954320               0.205626098               0.000000000              -0.305292729               0.224445420               0.000000000              -0.329631138               0.243264743               0.000000000              -0.353969547               0.262084065               0.000000000              -0.378307956               0.280903388               0.000000000              -0.402646365               0.299722710               0.000000000              -0.426984773               0.318542033               0.000000000              -0.451323182               0.337361355               0.000000000              -0.475661591               0.356180678               0.000000000              -0.500000000               0.375000000               0.000000000              -0.102810390               0.084374307               0.000000000              -0.127634741               0.106444663               0.000000000              -0.152459092               0.128515018               0.000000000              -0.177283442               0.150585374               0.000000000              -0.202107793               0.172655730               0.000000000              -0.226932143               0.194726086               0.000000000              -0.251756494               0.216796442               0.000000000              -0.276580845               0.238866798               0.000000000              -0.301405195               0.260937153               0.000000000              -0.326229546               0.283007509               0.000000000              -0.351053896               0.305077865               0.000000000              -0.375878247               0.327148221               0.000000000              -0.400702598               0.349218577               0.000000000              -0.425526948               0.371288933               0.000000000              -0.450351299               0.393359288               0.000000000              -0.475175649               0.415429644               0.000000000              -0.500000000               0.437500000               0.000000000              -0.094045202               0.094045202               0.000000000              -0.119417377               0.119417377               0.000000000              -0.144789552               0.144789552               0.000000000              -0.170161727               0.170161727               0.000000000              -0.195533901               0.195533901               0.000000000              -0.220906076               0.220906076               0.000000000              -0.246278251               0.246278251               0.000000000              -0.271650426               0.271650426               0.000000000              -0.297022601               0.297022601               0.000000000              -0.322394776               0.322394776               0.000000000              -0.347766951               0.347766951               0.000000000              -0.373139126               0.373139126               0.000000000              -0.398511300               0.398511300               0.000000000              -0.423883475               0.423883475               0.000000000              -0.449255650               0.449255650               0.000000000              -0.474627825               0.474627825               0.000000000              -0.500000000               0.500000000               0.000000000              -0.084374307               0.102810390               0.000000000              -0.106444663               0.127634741               0.000000000              -0.128515018               0.152459092               0.000000000              -0.150585374               0.177283442               0.000000000              -0.172655730               0.202107793               0.000000000              -0.194726086               0.226932143               0.000000000              -0.216796442               0.251756494               0.000000000              -0.238866798               0.276580845               0.000000000              -0.260937153               0.301405195               0.000000000              -0.283007509               0.326229546               0.000000000              -0.305077865               0.351053896               0.000000000              -0.327148221               0.375878247               0.000000000              -0.349218577               0.400702598               0.000000000              -0.371288933               0.425526948               0.000000000              -0.393359288               0.450351299               0.000000000              -0.415429644               0.475175649               0.000000000              -0.437500000               0.500000000               0.000000000              -0.073890841               0.110585458               0.000000000              -0.092710163               0.134923867               0.000000000              -0.111529486               0.159262276               0.000000000              -0.130348808               0.183600685               0.000000000              -0.149168131               0.207939094               0.000000000              -0.167987453               0.232277503               0.000000000              -0.186806776               0.256615912               0.000000000              -0.205626098               0.280954320               0.000000000              -0.224445420               0.305292729               0.000000000              -0.243264743               0.329631138               0.000000000              -0.262084065               0.353969547               0.000000000              -0.280903388               0.378307956               0.000000000              -0.299722710               0.402646365               0.000000000              -0.318542033               0.426984773               0.000000000              -0.337361355               0.451323182               0.000000000              -0.356180678               0.475661591               0.000000000              -0.375000000               0.500000000               0.000000000              -0.062695766               0.117295528               0.000000000              -0.078308531               0.141214558               0.000000000              -0.093921295               0.165133587               0.000000000              -0.109534060               0.189052617               0.000000000              -0.125146824               0.212971646               0.000000000              -0.140759589               0.236890676               0.000000000              -0.156372354               0.260809705               0.000000000              -0.171985118               0.284728735               0.000000000              -0.187597883               0.308647764               0.000000000              -0.203210648               0.332566794               0.000000000              -0.218823412               0.356485823               0.000000000              -0.234436177               0.380404853               0.000000000              -0.250048941               0.404323882               0.000000000              -0.265661706               0.428242912               0.000000000              -0.281274471               0.452161941               0.000000000              -0.296887235               0.476080971               0.000000000              -0.312500000               0.500000000               0.000000000              -0.050896897               0.122875978               0.000000000              -0.063340840               0.146446229               0.000000000              -0.075784784               0.170016481               0.000000000              -0.088228728               0.193586732               0.000000000              -0.100672672               0.217156983               0.000000000              -0.113116616               0.240727235               0.000000000              -0.125560560               0.264297486               0.000000000              -0.138004504               0.287867738               0.000000000              -0.150448448               0.311437989               0.000000000              -0.162892392               0.335008240               0.000000000              -0.175336336               0.358578492               0.000000000              -0.187780280               0.382148743               0.000000000              -0.200224224               0.405718994               0.000000000              -0.212668168               0.429289246               0.000000000              -0.225112112               0.452859497               0.000000000              -0.237556056               0.476429749               0.000000000              -0.250000000               0.500000000               0.000000000              -0.038607862               0.127273065               0.000000000              -0.047913621               0.150568498               0.000000000              -0.057219379               0.173863932               0.000000000              -0.066525138               0.197159365               0.000000000              -0.075830897               0.220454798               0.000000000              -0.085136655               0.243750232               0.000000000              -0.094442414               0.267045665               0.000000000              -0.103748172               0.290341099               0.000000000              -0.113053931               0.313636532               0.000000000              -0.122359690               0.336931966               0.000000000              -0.131665448               0.360227399               0.000000000              -0.140971207               0.383522833               0.000000000              -0.150276966               0.406818266               0.000000000              -0.159582724               0.430113700               0.000000000              -0.168888483               0.453409133               0.000000000              -0.178194241               0.476704567               0.000000000              -0.187500000               0.500000000               0.000000000              -0.025947013               0.130444442               0.000000000              -0.032137825               0.153541665               0.000000000              -0.038328636               0.176638887               0.000000000              -0.044519448               0.199736109               0.000000000              -0.050710260               0.222833332               0.000000000              -0.056901071               0.245930554               0.000000000              -0.063091883               0.269027776               0.000000000              -0.069282695               0.292124999               0.000000000              -0.075473506               0.315222221               0.000000000              -0.081664318               0.338319444               0.000000000              -0.087855130               0.361416666               0.000000000              -0.094045942               0.384513888               0.000000000              -0.100236753               0.407611111               0.000000000              -0.106427565               0.430708333               0.000000000              -0.112618377               0.453805555               0.000000000              -0.118809188               0.476902778               0.000000000              -0.125000000               0.500000000               0.000000000              -0.013036280               0.132359569               0.000000000              -0.016127762               0.155337096               0.000000000              -0.019219245               0.178314623               0.000000000              -0.022310727               0.201292150               0.000000000              -0.025402210               0.224269676               0.000000000              -0.028493692               0.247247203               0.000000000              -0.031585175               0.270224730               0.000000000              -0.034676657               0.293202257               0.000000000              -0.037768140               0.316179784               0.000000000              -0.040859622               0.339157311               0.000000000              -0.043951105               0.362134838               0.000000000              -0.047042587               0.385112365               0.000000000              -0.050134070               0.408089892               0.000000000              -0.053225552               0.431067419               0.000000000              -0.056317035               0.454044946               0.000000000              -0.059408517               0.477022473               0.000000000              -0.062500000               0.500000000               0.000000000               0.000000000               0.133000000               0.000000000               0.000000000               0.155937500               0.000000000               0.000000000               0.178875000               0.000000000               0.000000000               0.201812500               0.000000000               0.000000000               0.224750000               0.000000000               0.000000000               0.247687500               0.000000000               0.000000000               0.270625000               0.000000000               0.000000000               0.293562500               0.000000000               0.000000000               0.316500000               0.000000000               0.000000000               0.339437500               0.000000000               0.000000000               0.362375000               0.000000000               0.000000000               0.385312500               0.000000000               0.000000000               0.408250000               0.000000000               0.000000000               0.431187500               0.000000000               0.000000000               0.454125000               0.000000000               0.000000000               0.477062500               0.000000000               0.000000000               0.500000000               0.000000000 </DataArray>
</Points>
<Cells>
<DataArray type="Int32"                                    Name="connectivity"                                                      NumberOfComponents=" 1" format="ascii">
         0          1         18         17          1          2         19         18          2          3         20         19          3          4         21         20          4          5         22         21          5          6         23         22          6          7         24         23          7          8         25         24          8          9         26         25          9         10         27         26         10         11         28         27         11         12         29         28         12         13         30         29         13         14         31         30         14         15         32         31         15         16         33         32         17         18         35         34         18         19         36         35         19         20         37         36         20         21         38         37         21         22         39         38         22         23         40         39         23         24         41         40         24         25         42         41         25         26         43         42         26         27         44         43         27         28         45         44         28         29         46         45         29         30         47         46         30         31         48         47         31         32         49         48         32         33         50         49         34         35         52         51         35         36         53         52         36         37         54         53         37         38         55         54         38         39         56         55         39         40         57         56         40         41         58         57         41         42         59         58         42         43         60         59         43         44         61         60         44         45         62         61         45         46         63         62         46         47         64         63         47         48         65         64         48         49         66         65         49         50         67         66         51         52         69         68         52         53         70         69         53         54         71         70         54         55         72         71         55         56         73         72         56         57         74         73         57         58         75         74         58         59         76         75         59         60         77         76         60         61         78         77         61         62         79         78         62         63         80         79         63         64         81         80         64         65         82         81         65         66         83         82         66         67         84         83         68         69         86         85         69         70         87         86         70         71         88         87         71         72         89         88         72         73         90         89         73         74         91         90         74         75         92         91         75         76         93         92         76         77         94         93         77         78         95         94         78         79         96         95         79         80         97         96         80         81         98         97         81         82         99         98         82         83        100         99         83         84        101        100         85         86        103        102         86         87        104        103         87         88        105        104         88         89        106        105         89         90        107        106         90         91        108        107         91         92        109        108         92         93        110        109         93         94        111        110         94         95        112        111         95         96        113        112         96         97        114        113         97         98        115        114         98         99        116        115         99        100        117        116        100        101        118        117        102        103        120        119        103        104        121        120        104        105        122        121        105        106        123        122        106        107        124        123        107        108        125        124        108        109        126        125        109        110        127        126        110        111        128        127        111        112        129        128        112        113        130        129        113        114        131        130        114        115        132        131        115        116        133        132        116        117        134        133        117        118        135        134        119        120        137        136        120        121        138        137        121        122        139        138        122        123        140        139        123        124        141        140        124        125        142        141        125        126        143        142        126        127        144        143        127        128        145        144        128        129        146        145        129        130        147        146        130        131        148        147        131        132        149        148        132        133        150        149        133        134        151        150        134        135        152        151        136        137        154        153        137        138        155        154        138        139        156        155        139        140        157        156        140        141        158        157        141        142        159        158        142        143        160        159        143        144        161        160        144        145        162        161        145        146        163        162        146        147        164        163        147        148        165        164        148        149        166        165        149        150        167        166        150        151        168        167        151        152        169        168        153        154        171        170        154        155        172        171        155        156        173        172        156        157        174        173        157        158        175        174        158        159        176        175        159        160        177        176        160        161        178        177        161        162        179        178        162        163        180        179        163        164        181        180        164        165        182        181        165        166        183        182        166        167        184        183        167        168        185        184        168        169        186        185        170        171        188        187        171        172        189        188        172        173        190        189        173        174        191        190        174        175        192        191        175        176        193        192        176        177        194        193        177        178        195        194        178        179        196        195        179        180        197        196        180        181        198        197        181        182        199        198        182        183        200        199        183        184        201        200        184        185        202        201        185        186        203        202        187        188        205        204        188        189        206        205        189        190        207        206        190        191        208        207        191        192        209        208        192        193        210        209        193        194        211        210        194        195        212        211        195        196        213        212        196        197        214        213        197        198        215        214        198        199        216        215        199        200        217        216        200        201        218        217        201        202        219        218        202        203        220        219        204        205        222        221        205        206        223        222        206        207        224        223        207        208        225        224        208        209        226        225        209        210        227        226        210        211        228        227        211        212        229        228        212        213        230        229        213        214        231        230        214        215        232        231        215        216        233        232        216        217        234        233        217        218        235        234        218        219        236        235        219        220        237        236        221        222        239        238        222        223        240        239        223        224        241        240        224        225        242        241        225        226        243        242        226        227        244        243        227        228        245        244        228        229        246        245        229        230        247        246        230        231        248        247        231        232        249        248        232        233        250        249        233        234        251        250        234        235        252        251        235        236        253        252        236        237        254        253        238        239        256        255        239        240        257        256        240        241        258        257        241        242        259        258        242        243        260        259        243        244        261        260        244        245        262        261        245        246        263        262        246        247        264        263        247        248        265        264        248        249        266        265        249        250        267        266        250        251        268        267        251        252        269        268        252        253        270        269        253        254        271        270        255        256        273        272        256        257        274        273        257        258        275        274        258        259        276        275        259        260        277        276        260        261        278        277        261        262        279        278        262        263        280        279        263        264        281        280        264        265        282        281        265        266        283        282        266        267        284        283        267        268        285        284        268        269        286        285        269        270        287        286        270        271        288        287        306        307          1          0        307        308          2          1        308        309          3          2        309        310          4          3        310        311          5          4        311        312          6          5        312        313          7          6        313        314          8          7        314        315          9          8        315        316         10          9        316        317         11         10        317        318         12         11        318        319         13         12        319        320         14         13        320        321         15         14        321        322         16         15        323        324        307        306        324        325        308        307        325        326        309        308        326        327        310        309        327        328        311        310        328        329        312        311        329        330        313        312        330        331        314        313        331        332        315        314        332        333        316        315        333        334        317        316        334        335        318        317        335        336        319        318        336        337        320        319        337        338        321        320        338        339        322        321        340        341        324        323        341        342        325        324        342        343        326        325        343        344        327        326        344        345        328        327        345        346        329        328        346        347        330        329        347        348        331        330        348        349        332        331        349        350        333        332        350        351        334        333        351        352        335        334        352        353        336        335        353        354        337        336        354        355        338        337        355        356        339        338        357        358        341        340        358        359        342        341        359        360        343        342        360        361        344        343        361        362        345        344        362        363        346        345        363        364        347        346        364        365        348        347        365        366        349        348        366        367        350        349        367        368        351        350        368        369        352        351        369        370        353        352        370        371        354        353        371        372        355        354        372        373        356        355        374        375        358        357        375        376        359        358        376        377        360        359        377        378        361        360        378        379        362        361        379        380        363        362        380        381        364        363        381        382        365        364        382        383        366        365        383        384        367        366        384        385        368        367        385        386        369        368        386        387        370        369        387        388        371        370        388        389        372        371        389        390        373        372        391        392        375        374        392        393        376        375        393        394        377        376        394        395        378        377        395        396        379        378        396        397        380        379        397        398        381        380        398        399        382        381        399        400        383        382        400        401        384        383        401        402        385        384        402        403        386        385        403        404        387        386        404        405        388        387        405        406        389        388        406        407        390        389        408        409        392        391        409        410        393        392        410        411        394        393        411        412        395        394        412        413        396        395        413        414        397        396        414        415        398        397        415        416        399        398        416        417        400        399        417        418        401        400        418        419        402        401        419        420        403        402        420        421        404        403        421        422        405        404        422        423        406        405        423        424        407        406        425        426        409        408        426        427        410        409        427        428        411        410        428        429        412        411        429        430        413        412        430        431        414        413        431        432        415        414        432        433        416        415        433        434        417        416        434        435        418        417        435        436        419        418        436        437        420        419        437        438        421        420        438        439        422        421        439        440        423        422        440        441        424        423        442        443        426        425        443        444        427        426        444        445        428        427        445        446        429        428        446        447        430        429        447        448        431        430        448        449        432        431        449        450        433        432        450        451        434        433        451        452        435        434        452        453        436        435        453        454        437        436        454        455        438        437        455        456        439        438        456        457        440        439        457        458        441        440        459        460        443        442        460        461        444        443        461        462        445        444        462        463        446        445        463        464        447        446        464        465        448        447        465        466        449        448        466        467        450        449        467        468        451        450        468        469        452        451        469        470        453        452        470        471        454        453        471        472        455        454        472        473        456        455        473        474        457        456        474        475        458        457        476        477        460        459        477        478        461        460        478        479        462        461        479        480        463        462        480        481        464        463        481        482        465        464        482        483        466        465        483        484        467        466        484        485        468        467        485        486        469        468        486        487        470        469        487        488        471        470        488        489        472        471        489        490        473        472        490        491        474        473        491        492        475        474        493        494        477        476        494        495        478        477        495        496        479        478        496        497        480        479        497        498        481        480        498        499        482        481        499        500        483        482        500        501        484        483        501        502        485        484        502        503        486        485        503        504        487        486        504        505        488        487        505        506        489        488        506        507        490        489        507        508        491        490        508        509        492        491        510        511        494        493        511        512        495        494        512        513        496        495        513        514        497        496        514        515        498        497        515        516        499        498        516        517        500        499        517        518        501        500        518        519        502        501        519        520        503        502        520        521        504        503        521        522        505        504        522        523        506        505        523        524        507        506        524        525        508        507        525        526        509        508        527        528        511        510        528        529        512        511        529        530        513        512        530        531        514        513        531        532        515        514        532        533        516        515        533        534        517        516        534        535        518        517        535        536        519        518        536        537        520        519        537        538        521        520        538        539        522        521        539        540        523        522        540        541        524        523        541        542        525        524        542        543        526        525        544        545        528        527        545        546        529        528        546        547        530        529        547        548        531        530        548        549        532        531        549        550        533        532        550        551        534        533        551        552        535        534        552        553        536        535        553        554        537        536        554        555        538        537        555        556        539        538        556        557        540        539        557        558        541        540        558        559        542        541        559        560        543        542        561        562        545        544        562        563        546        545        563        564        547        546        564        565        548        547        565        566        549        548        566        567        550        549        567        568        551        550        568        569        552        551        569        570        553        552        570        571        554        553        571        572        555        554        572        573        556        555        573        574        557        556        574        575        558        557        575        576        559        558        576        577        560        559        578        579        596        595        579        580        597        596        580        581        598        597        581        582        599        598        582        583        600        599        583        584        601        600        584        585        602        601        585        586        603        602        586        587        604        603        587        588        605        604        588        589        606        605        589        590        607        606        590        591        608        607        591        592        609        608        592        593        610        609        593        594        611        610        595        596        613        612        596        597        614        613        597        598        615        614        598        599        616        615        599        600        617        616        600        601        618        617        601        602        619        618        602        603        620        619        603        604        621        620        604        605        622        621        605        606        623        622        606        607        624        623        607        608        625        624        608        609        626        625        609        610        627        626        610        611        628        627        612        613        630        629        613        614        631        630        614        615        632        631        615        616        633        632        616        617        634        633        617        618        635        634        618        619        636        635        619        620        637        636        620        621        638        637        621        622        639        638        622        623        640        639        623        624        641        640        624        625        642        641        625        626        643        642        626        627        644        643        627        628        645        644        629        630        647        646        630        631        648        647        631        632        649        648        632        633        650        649        633        634        651        650        634        635        652        651        635        636        653        652        636        637        654        653        637        638        655        654        638        639        656        655        639        640        657        656        640        641        658        657        641        642        659        658        642        643        660        659        643        644        661        660        644        645        662        661        646        647        664        663        647        648        665        664        648        649        666        665        649        650        667        666        650        651        668        667        651        652        669        668        652        653        670        669        653        654        671        670        654        655        672        671        655        656        673        672        656        657        674        673        657        658        675        674        658        659        676        675        659        660        677        676        660        661        678        677        661        662        679        678        663        664        681        680        664        665        682        681        665        666        683        682        666        667        684        683        667        668        685        684        668        669        686        685        669        670        687        686        670        671        688        687        671        672        689        688        672        673        690        689        673        674        691        690        674        675        692        691        675        676        693        692        676        677        694        693        677        678        695        694        678        679        696        695        680        681        698        697        681        682        699        698        682        683        700        699        683        684        701        700        684        685        702        701        685        686        703        702        686        687        704        703        687        688        705        704        688        689        706        705        689        690        707        706        690        691        708        707        691        692        709        708        692        693        710        709        693        694        711        710        694        695        712        711        695        696        713        712        697        698        715        714        698        699        716        715        699        700        717        716        700        701        718        717        701        702        719        718        702        703        720        719        703        704        721        720        704        705        722        721        705        706        723        722        706        707        724        723        707        708        725        724        708        709        726        725        709        710        727        726        710        711        728        727        711        712        729        728        712        713        730        729        714        715        732        731        715        716        733        732        716        717        734        733        717        718        735        734        718        719        736        735        719        720        737        736        720        721        738        737        721        722        739        738        722        723        740        739        723        724        741        740        724        725        742        741        725        726        743        742        726        727        744        743        727        728        745        744        728        729        746        745        729        730        747        746        731        732        749        748        732        733        750        749        733        734        751        750        734        735        752        751        735        736        753        752        736        737        754        753        737        738        755        754        738        739        756        755        739        740        757        756        740        741        758        757        741        742        759        758        742        743        760        759        743        744        761        760        744        745        762        761        745        746        763        762        746        747        764        763        748        749        766        765        749        750        767        766        750        751        768        767        751        752        769        768        752        753        770        769        753        754        771        770        754        755        772        771        755        756        773        772        756        757        774        773        757        758        775        774        758        759        776        775        759        760        777        776        760        761        778        777        761        762        779        778        762        763        780        779        763        764        781        780        765        766        783        782        766        767        784        783        767        768        785        784        768        769        786        785        769        770        787        786        770        771        788        787        771        772        789        788        772        773        790        789        773        774        791        790        774        775        792        791        775        776        793        792        776        777        794        793        777        778        795        794        778        779        796        795        779        780        797        796        780        781        798        797        782        783        800        799        783        784        801        800        784        785        802        801        785        786        803        802        786        787        804        803        787        788        805        804        788        789        806        805        789        790        807        806        790        791        808        807        791        792        809        808        792        793        810        809        793        794        811        810        794        795        812        811        795        796        813        812        796        797        814        813        797        798        815        814        799        800        817        816        800        801        818        817        801        802        819        818        802        803        820        819        803        804        821        820        804        805        822        821        805        806        823        822        806        807        824        823        807        808        825        824        808        809        826        825        809        810        827        826        810        811        828        827        811        812        829        828        812        813        830        829        813        814        831        830        814        815        832        831        816        817        834        833        817        818        835        834        818        819        836        835        819        820        837        836        820        821        838        837        821        822        839        838        822        823        840        839        823        824        841        840        824        825        842        841        825        826        843        842        826        827        844        843        827        828        845        844        828        829        846        845        829        830        847        846        830        831        848        847        831        832        849        848        833        834        562        561        834        835        563        562        835        836        564        563        836        837        565        564        837        838        566        565        838        839        567        566        839        840        568        567        840        841        569        568        841        842        570        569        842        843        571        570        843        844        572        571        844        845        573        572        845        846        574        573        846        847        575        574        847        848        576        575        848        849        577        576        884        885        579        578        885        886        580        579        886        887        581        580        887        888        582        581        888        889        583        582        889        890        584        583        890        891        585        584        891        892        586        585        892        893        587        586        893        894        588        587        894        895        589        588        895        896        590        589        896        897        591        590        897        898        592        591        898        899        593        592        899        900        594        593        901        902        885        884        902        903        886        885        903        904        887        886        904        905        888        887        905        906        889        888        906        907        890        889        907        908        891        890        908        909        892        891        909        910        893        892        910        911        894        893        911        912        895        894        912        913        896        895        913        914        897        896        914        915        898        897        915        916        899        898        916        917        900        899        918        919        902        901        919        920        903        902        920        921        904        903        921        922        905        904        922        923        906        905        923        924        907        906        924        925        908        907        925        926        909        908        926        927        910        909        927        928        911        910        928        929        912        911        929        930        913        912        930        931        914        913        931        932        915        914        932        933        916        915        933        934        917        916        935        936        919        918        936        937        920        919        937        938        921        920        938        939        922        921        939        940        923        922        940        941        924        923        941        942        925        924        942        943        926        925        943        944        927        926        944        945        928        927        945        946        929        928        946        947        930        929        947        948        931        930        948        949        932        931        949        950        933        932        950        951        934        933        952        953        936        935        953        954        937        936        954        955        938        937        955        956        939        938        956        957        940        939        957        958        941        940        958        959        942        941        959        960        943        942        960        961        944        943        961        962        945        944        962        963        946        945        963        964        947        946        964        965        948        947        965        966        949        948        966        967        950        949        967        968        951        950        969        970        953        952        970        971        954        953        971        972        955        954        972        973        956        955        973        974        957        956        974        975        958        957        975        976        959        958        976        977        960        959        977        978        961        960        978        979        962        961        979        980        963        962        980        981        964        963        981        982        965        964        982        983        966        965        983        984        967        966        984        985        968        967        986        987        970        969        987        988        971        970        988        989        972        971        989        990        973        972        990        991        974        973        991        992        975        974        992        993        976        975        993        994        977        976        994        995        978        977        995        996        979        978        996        997        980        979        997        998        981        980        998        999        982        981        999       1000        983        982       1000       1001        984        983       1001       1002        985        984       1003       1004        987        986       1004       1005        988        987       1005       1006        989        988       1006       1007        990        989       1007       1008        991        990       1008       1009        992        991       1009       1010        993        992       1010       1011        994        993       1011       1012        995        994       1012       1013        996        995       1013       1014        997        996       1014       1015        998        997       1015       1016        999        998       1016       1017       1000        999       1017       1018       1001       1000       1018       1019       1002       1001       1020       1021       1004       1003       1021       1022       1005       1004       1022       1023       1006       1005       1023       1024       1007       1006       1024       1025       1008       1007       1025       1026       1009       1008       1026       1027       1010       1009       1027       1028       1011       1010       1028       1029       1012       1011       1029       1030       1013       1012       1030       1031       1014       1013       1031       1032       1015       1014       1032       1033       1016       1015       1033       1034       1017       1016       1034       1035       1018       1017       1035       1036       1019       1018       1037       1038       1021       1020       1038       1039       1022       1021       1039       1040       1023       1022       1040       1041       1024       1023       1041       1042       1025       1024       1042       1043       1026       1025       1043       1044       1027       1026       1044       1045       1028       1027       1045       1046       1029       1028       1046       1047       1030       1029       1047       1048       1031       1030       1048       1049       1032       1031       1049       1050       1033       1032       1050       1051       1034       1033       1051       1052       1035       1034       1052       1053       1036       1035       1054       1055       1038       1037       1055       1056       1039       1038       1056       1057       1040       1039       1057       1058       1041       1040       1058       1059       1042       1041       1059       1060       1043       1042       1060       1061       1044       1043       1061       1062       1045       1044       1062       1063       1046       1045       1063       1064       1047       1046       1064       1065       1048       1047       1065       1066       1049       1048       1066       1067       1050       1049       1067       1068       1051       1050       1068       1069       1052       1051       1069       1070       1053       1052       1071       1072       1055       1054       1072       1073       1056       1055       1073       1074       1057       1056       1074       1075       1058       1057       1075       1076       1059       1058       1076       1077       1060       1059       1077       1078       1061       1060       1078       1079       1062       1061       1079       1080       1063       1062       1080       1081       1064       1063       1081       1082       1065       1064       1082       1083       1066       1065       1083       1084       1067       1066       1084       1085       1068       1067       1085       1086       1069       1068       1086       1087       1070       1069       1088       1089       1072       1071       1089       1090       1073       1072       1090       1091       1074       1073       1091       1092       1075       1074       1092       1093       1076       1075       1093       1094       1077       1076       1094       1095       1078       1077       1095       1096       1079       1078       1096       1097       1080       1079       1097       1098       1081       1080       1098       1099       1082       1081       1099       1100       1083       1082       1100       1101       1084       1083       1101       1102       1085       1084       1102       1103       1086       1085       1103       1104       1087       1086       1105       1106       1089       1088       1106       1107       1090       1089       1107       1108       1091       1090       1108       1109       1092       1091       1109       1110       1093       1092       1110       1111       1094       1093       1111       1112       1095       1094       1112       1113       1096       1095       1113       1114       1097       1096       1114       1115       1098       1097       1115       1116       1099       1098       1116       1117       1100       1099       1117       1118       1101       1100       1118       1119       1102       1101       1119       1120       1103       1102       1120       1121       1104       1103       1122       1123       1106       1105       1123       1124       1107       1106       1124       1125       1108       1107       1125       1126       1109       1108       1126       1127       1110       1109       1127       1128       1111       1110       1128       1129       1112       1111       1129       1130       1113       1112       1130       1131       1114       1113       1131       1132       1115       1114       1132       1133       1116       1115       1133       1134       1117       1116       1134       1135       1118       1117       1135       1136       1119       1118       1136       1137       1120       1119       1137       1138       1121       1120        272        273       1123       1122        273        274       1124       1123        274        275       1125       1124        275        276       1126       1125        276        277       1127       1126        277        278       1128       1127        278        279       1129       1128        279        280       1130       1129        280        281       1131       1130        281        282       1132       1131        282        283       1133       1132        283        284       1134       1133        284        285       1135       1134        285        286       1136       1135        286        287       1137       1136        287        288       1138       1137 </DataArray>
<DataArray type="Int32"                                    Name="offsets"                                                      NumberOfComponents=" 1" format="ascii">
         4          8         12         16         20         24         28         32         36         40         44         48         52         56         60         64         68         72         76         80         84         88         92         96        100        104        108        112        116        120        124        128        132        136        140        144        148        152        156        160        164        168        172        176        180        184        188        192        196        200        204        208        212        216        220        224        228        232        236        240        244        248        252        256        260        264        268        272        276        280        284        288        292        296        300        304        308        312        316        320        324        328        332        336        340        344        348        352        356        360        364        368        372        376        380        384        388        392        396        400        404        408        412        416        420        424        428        432        436        440        444        448        452        456        460        464        468        472        476        480        484        488        492        496        500        504        508        512        516        520        524        528        532        536        540        544        548        552        556        560        564        568        572        576        580        584        588        592        596        600        604        608        612        616        620        624        628        632        636        640        644        648        652        656        660        664        668        672        676        680        684        688        692        696        700        704        708        712        716        720        724        728        732        736        740        744        748        752        756        760        764        768        772        776        780        784        788        792        796        800        804        808        812        816        820        824        828        832        836        840        844        848        852        856        860        864        868        872        876        880        884        888        892        896        900        904        908        912        916        920        924        928        932        936        940        944        948        952        956        960        964        968        972        976        980        984        988        992        996       1000       1004       1008       1012       1016       1020       1024       1028       1032       1036       1040       1044       1048       1052       1056       1060       1064       1068       1072       1076       1080       1084       1088       1092       1096       1100       1104       1108       1112       1116       1120       1124       1128       1132       1136       1140       1144       1148       1152       1156       1160       1164       1168       1172       1176       1180       1184       1188       1192       1196       1200       1204       1208       1212       1216       1220       1224       1228       1232       1236       1240       1244       1248       1252       1256       1260       1264       1268       1272       1276       1280       1284       1288       1292       1296       1300       1304       1308       1312       1316       1320       1324       1328       1332       1336       1340       1344       1348       1352       1356       1360       1364       1368       1372       1376       1380       1384       1388       1392       1396       1400       1404       1408       1412       1416       1420       1424       1428       1432       1436       1440       1444       1448       1452       1456       1460       1464       1468       1472       1476       1480       1484       1488       1492       1496       1500       1504       1508       1512       1516       1520       1524       1528       1532       1536       1540       1544       1548       1552       1556       1560       1564       1568       1572       1576       1580       1584       1588       1592       1596       1600       1604       1608       1612       1616       1620       1624       1628       1632       1636       1640       1644       1648       1652       1656       1660       1664       1668       1672       1676       1680       1684       1688       1692       1696       1700       1704       1708       1712       1716       1720       1724       1728       1732       1736       1740       1744       1748       1752       1756       1760       1764       1768       1772       1776       1780       1784       1788       1792       1796       1800       1804       1808       1812       1816       1820       1824       1828       1832       1836       1840       1844       1848       1852       1856       1860       1864       1868       1872       1876       1880       1884       1888       1892       1896       1900       1904       1908       1912       1916       1920       1924       1928       1932       1936       1940       1944       1948       1952       1956       1960       1964       1968       1972       1976       1980       1984       1988       1992       1996       2000       2004       2008       2012       2016       2020       2024       2028       2032       2036       2040       2044       2048       2052       2056       2060       2064       2068       2072       2076       2080       2084       2088       2092       2096       2100       2104       2108       2112       2116       2120       2124       2128       2132       2136       2140       2144       2148       2152       2156       2160       2164       2168       2172       2176       2180       2184       2188       2192       2196       2200       2204       2208       2212       2216       2220       2224       2228       2232       2236       2240       2244       2248       2252       2256       2260       2264       2268       2272       2276       2280       2284       2288       2292       2296       2300       2304       2308       2312       2316       2320       2324       2328       2332       2336       2340       2344       2348       2352       2356       2360       2364       2368       2372       2376       2380       2384       2388       2392       2396       2400       2404       2408       2412       2416       2420       2424       2428       2432       2436       2440       2444       2448       2452       2456       2460       2464       2468       2472       2476       2480       2484       2488       2492       2496       2500       2504       2508       2512       2516       2520       2524       2528       2532       2536       2540       2544       2548       2552       2556       2560       2564       2568       2572       2576       2580       2584       2588       2592       2596       2600       2604       2608       2612       2616       2620       2624       2628       2632       2636       2640       2644       2648       2652       2656       2660       2664       2668       2672       2676       2680       2684       2688       2692       2696       2700       2704       2708       2712       2716       2720       2724       2728       2732       2736       2740       2744       2748       2752       2756       2760       2764       2768       2772       2776       2780       2784       2788       2792       2796       2800       2804       2808       2812       2816       2820       2824       2828       2832       2836       2840       2844       2848       2852       2856       2860       2864       2868       2872       2876       2880       2884       2888       2892       2896       2900       2904       2908       2912       2916       2920       2924       2928       2932       2936       2940       2944       2948       2952       2956       2960       2964       2968       2972       2976       2980       2984       2988       2992       2996       3000       3004       3008       3012       3016       3020       3024       3028       3032       3036       3040       3044       3048       3052       3056       3060       3064       3068       3072       3076       3080       3084       3088       3092       3096       3100       3104       3108       3112       3116       3120       3124       3128       3132       3136       3140       3144       3148       3152       3156       3160       3164       3168       3172       3176       3180       3184       3188       3192       3196       3200       3204       3208       3212       3216       3220       3224       3228       3232       3236       3240       3244       3248       3252       3256       3260       3264       3268       3272       3276       3280       3284       3288       3292       3296       3300       3304       3308       3312       3316       3320       3324       3328       3332       3336       3340       3344       3348       3352       3356       3360       3364       3368       3372       3376       3380       3384       3388       3392       3396       3400       3404       3408       3412       3416       3420       3424       3428       3432       3436       3440       3444       3448       3452       3456       3460       3464       3468       3472       3476       3480       3484       3488       3492       3496       3500       3504       3508       3512       3516       3520       3524       3528       3532       3536       3540       3544       3548       3552       3556       3560       3564       3568       3572       3576       3580       3584       3588       3592       3596       3600       3604       3608       3612       3616       3620       3624       3628       3632       3636       3640       3644       3648       3652       3656       3660       3664       3668       3672       3676       3680       3684       3688       3692       3696       3700       3704       3708       3712       3716       3720       3724       3728       3732       3736       3740       3744       3748       3752       3756       3760       3764       3768       3772       3776       3780       3784       3788       3792       3796       3800       3804       3808       3812       3816       3820       3824       3828       3832       3836       3840       3844       3848       3852       3856       3860       3864       3868       3872       3876       3880       3884       3888       3892       3896       3900       3904       3908       3912       3916       3920       3924       3928       3932       3936       3940       3944       3948       3952       3956       3960       3964       3968       3972       3976       3980       3984       3988       3992       3996       4000       4004       4008       4012       4016       4020       4024       4028       4032       4036       4040       4044       4048       4052       4056       4060       4064       4068       4072       4076       4080       4084       4088       4092       4096 </DataArray>
<DataArray type="UInt8"                                    Name="types"                                                      NumberOfComponents=" 1" format="ascii">
         9          9          9          9          9          9          9          9          9          9          9          9          9          9          9          9          9          9          9          9          9          9          9          9          9          9          9          9          9          9          9          9          9          9          9          9          9          9          9          9          9          9          9          9          9          9          9          9          9          9          9          9          9          9          9          9          9          9          9          9          9          9          9          9          9          9          9          9          9          9          9          9          9          9          9          9          9          9          9          9          9          9          9          9          9          9          9          9          9          9          9          9          9          9          9          9          9          9          9          9          9          9          9          9          9          9          9          9          9          9          9          9          9          9          9          9          9          9          9          9          9          9          9          9          9          9          9          9          9          9          9          9          9          9          9          9          9          9          9          9          9          9          9          9          9          9          9          9          9          9          9          9          9          9          9          9          9          9          9          9          9          9          9          9          9          9          9          9          9          9          9          9          9          9          9          9          9          9          9          9          9          9          9          9          9          9          9          9          9          9          9          9          9          9          9          9          9          9          9          9          9          9          9          9          9          9          9          9          9          9          9          9          9          9          9          9          9          9          9          9          9          9          9          9          9          9          9          9          9          9          9          9          9          9          9          9          9          9          9          9          9          9          9          9          9          9          9          9          9          9          9          9          9          9          9          9          9          9          9          9          9          9          9          9          9          9          9          9          9          9          9          9          9          9          9          9          9          9          9          9          9          9          9          9          9          9          9          9          9          9          9          9          9          9          9          9          9          9          9          9          9          9          9          9          9          9          9          9          9          9          9          9          9          9          9          9          9          9          9          9          9          9          9          9          9          9          9          9          9          9          9          9          9          9          9          9          9          9          9          9          9          9          9          9          9          9          9          9          9          9          9          9          9          9          9          9          9          9          9          9          9          9          9          9          9          9          9          9          9          9          9          9          9          9          9          9          9          9          9          9          9          9          9          9          9          9          9          9          9          9          9          9          9          9          9          9          9          9          9          9          9          9          9          9          9          9          9          9          9          9          9          9          9          9          9          9          9          9          9          9          9          9          9          9          9          9          9          9          9          9          9          9          9          9          9          9          9          9          9          9          9          9          9          9          9          9          9          9          9          9          9          9          9          9          9          9          9          9          9          9          9          9          9          9          9          9          9          9          9          9          9          9          9          9          9          9          9          9          9          9          9          9          9          9          9          9          9          9          9          9          9          9          9          9          9          9          9          9          9          9          9          9          9          9          9          9          9          9          9          9          9          9          9          9          9          9          9          9          9          9          9          9          9          9          9          9          9          9          9          9          9          9          9          9          9          9          9          9          9          9          9          9          9          9          9          9          9          9          9          9          9          9          9          9          9          9          9          9          9          9          9          9          9          9          9          9          9          9          9          9          9          9          9          9          9          9          9          9          9          9          9          9          9          9          9          9          9          9          9          9          9          9          9          9          9          9          9          9          9          9          9          9          9          9          9          9          9          9          9          9          9          9          9          9          9          9          9          9          9          9          9          9          9          9          9          9          9          9          9          9          9          9          9          9          9          9          9          9          9          9          9          9          9          9          9          9          9          9          9          9          9          9          9          9          9          9          9          9          9          9          9          9          9          9          9          9          9          9          9          9          9          9          9          9          9          9          9          9          9          9          9          9          9          9          9          9          9          9          9          9          9          9          9          9          9          9          9          9          9          9          9          9          9          9          9          9          9          9          9          9          9          9          9          9          9          9          9          9          9          9          9          9          9          9          9          9          9          9          9          9          9          9          9          9          9          9          9          9          9          9          9          9          9          9          9          9          9          9          9          9          9          9          9          9          9          9          9          9          9          9          9          9          9          9          9          9          9          9          9          9          9          9          9          9          9          9          9          9          9          9          9          9          9          9          9          9          9          9          9          9          9          9          9          9          9          9          9          9          9          9          9          9          9          9          9          9          9          9          9          9          9          9          9          9          9          9          9          9          9          9          9          9          9          9          9          9          9          9          9          9          9          9          9          9          9          9          9          9          9          9          9          9          9          9          9          9          9          9          9          9          9          9          9          9          9          9          9          9          9          9          9          9          9          9          9          9          9          9          9          9          9          9          9          9          9          9          9          9          9          9          9          9          9          9          9          9          9          9          9          9          9          9          9          9          9          9          9          9          9          9          9          9          9          9          9          9          9          9          9          9          9          9          9          9          9          9          9          9          9          9          9          9          9          9          9          9          9          9          9          9          9          9          9          9          9          9          9          9          9          9          9          9          9          9          9          9          9          9          9          9          9          9          9          9          9          9          9          9          9          9          9          9          9          9          9          9          9          9          9          9          9          9          9          9          9          9          9          9          9          9          9          9          9          9          9          9          9          9          9          9          9          9          9          9          9          9          9          9          9          9          9          9          9          9          9          9          9          9          9          9          9          9          9          9          9          9          9          9          9          9          9          9          9          9 </DataArray>
</Cells>
<CellData>
<DataArray type="Int32"                                    Name="material"                                                      NumberOfComponents=" 1" format="ascii">
         1          1          1          1          1          1          1          1          1          1          1          1          1          1          1          1          1          1          1          1          1          1          1          1          1          1          1          1          1          1          1          1          1          1          1          1          1          1          1          1          1          1          1          1          1          1          1          1          1          1          1          1          1          1          1          1          1          1          1          1          1          1          1          1          1          1          1          1          1          1          1          1          1          1          1          1          1          1          1          1          1          1          1          1          1          1          1          1          1          1          1          1          1          1          1          1          1          1          1          1          1          1          1          1          1          1          1          1          1          1          1          1          1          1          1          1          1          1          1          1          1          1          1          1          1          1          1          1          1          1          1          1          1          1          1          1          1          1          1          1          1          1          1          1          1          1          1          1          1          1          1          1          1          1          1          1          1          1          1          1          1          1          1          1          1          1          1          1          1          1          1          1          1          1          1          1          1          1          1          1          1          1          1          1          1          1          1          1          1          1          1          1          1          1          1          1          1          1          1          1          1          1          1          1          1          1          1          1          1          1          1          1          1          1          1          1          1          1          1          1          1          1          1          1          1          1          1          1          1          1          1          1          1          1          1          1          1          1          1          1          1          1          1          1          1          1          1          1          1          1          1          1          1          1          1          1          1          1          1          1          1          1          1          1          1          1          1          1          1          1          1          1          1          1          1          1          1          1          1          1          1          1          1          1          1          1          1          1          1          1          1          1          1          1          1          1          1          1          1          1          1          1          1          1          1          1          1          1          1          1          1          1          1          1          1          1          1          1          1          1          1          1          1          1          1          1          1          1          1          1          1          1          1          1          1          1          1          1          1          1          1          1          1          1          1          1          1          1          1          1          1          1          1          1          1          1          1          1          1          1          1          1          1          1          1          1          1          1          1          1          1          1          1          1          1          1          1          1          1          1          1          1          1          1          1          1          1          1          1          1          1          1          1          1          1          1          1          1          1          1          1          1          1          1          1          1          1          1          1          1          1          1          1          1          1          1          1          1          1          1          1          1          1          1          1          1          1          1          1          1          1          1          1          1          1          1          1          1          1          1          1          1          1          1          1          1          1          1          1          1          1          1          1          1          1          1          1          1          1          1          1          1          1          1          1          1          1          1          1          1          1          1          1          1          1          1          1          1          1          1          1          1          1          1          1          1          1          1          1          1          1          1          1          1          1          1          1          1          1          1          1          1          1          1          1          1          1          1          1          1          1          1          1          1          1          1          1          1          1          1          1          1          1          1          1          1          1          1          1          1          1          1          1          1          1          1          1          1          1          1          1          1          1          1          1          1          1          1          1          1          1          1          1          1          1          1          1          1          1          1          1          1          1          1          1          1          1          1          1          1          1          1          1          1          1          1          1          1          1          1          1          1          1          1          1          1          1          1          1          1          1          1          1          1          1          1          1          1          1          1          1          1          1          1          1          1          1          1          1          1          1          1          1          1          1          1          1          1          1          1          1          1          1          1          1          1          1          1          1          1          1          1          1          1          1          1          1          1          1          1          1          1          1          1          1          1          1          1          1          1          1          1          1          1          1          1          1          1          1          1          1          1          1          1          1          1          1          1          1          1          1          1          1          1          1          1          1          1          1          1          1          1          1          1          1          1          1          1          1          1          1          1          1          1          1          1          1          1          1          1          1          1          1          1          1          1          1          1          1          1          1          1          1          1          1          1          1          1          1          1          1          1          1          1          1          1          1          1          1          1          1          1          1          1          1          1          1          1          1          1          1          1          1          1          1          1          1          1          1          1          1          1          1          1          1          1          1          1          1          1          1          1          1          1          1          1          1          1          1          1          1          1          1          1          1          1          1          1          1          1          1          1          1          1          1          1          1          1          1          1          1          1          1          1          1          1          1          1          1          1          1          1          1          1          1          1          1          1          1          1          1          1          1          1          1          1          1          1          1          1          1          1          1          1          1          1          1          1          1          1          1          1          1          1          1          1          1          1          1          1          1          1          1          1          1          1          1          1          1          1          1          1          1          1          1          1          1          1          1          1          1          1          1          1          1          1          1          1          1          1          1          1          1          1          1          1          1          1          1          1          1          1          1          1          1          1          1          1          1          1          1          1          1          1          1          1          1          1          1          1          1          1          1          1          1          1          1          1          1          1          1          1          1          1          1          1          1          1          1          1          1          1          1          1          1          1          1          1          1          1          1          1          1          1          1          1          1          1          1          1          1          1          1          1          1          1          1          1          1          1          1          1          1          1          1          1          1          1          1          1          1          1          1          1          1          1          1          1          1          1          1          1          1          1          1          1          1          1          1          1          1          1          1          1          1          1          1          1          1          1          1          1          1          1          1          1          1          1          1          1          1          1          1          1          1          1          1          1          1          1          1          1          1          1          1          1          1          1          1          1          1          1          1          1 </DataArray>
</CellData>
<PointData>
<DataArray type="Float64"                                    Name="u"                                                      NumberOfComponents=" 3" format="ascii">
             -0.000710552               0.000000000               0.999999984              -0.000761015               0.000000000               0.999999984              -0.000782734               0.000000000               0.999999984              -0.000794566               0.000000000               0.999999984              -0.000803751               0.000000000               0.999999984              -0.000812892               0.000000000               0.999999984              -0.000822919              -0.000000000               0.999999984              -0.000834203               0.000000000               0.999999984              -0.000846688              -0.000000000               0.999999984              -0.000860192              -0.000000000               0.999999984              -0.000874343              -0.000000000               0.999999984              -0.000888795               0.000000000               0.999999984              -0.000903194               0.000000000               0.999999984              -0.000917409               0.000000000               0.999999984              -0.000931230               0.000000000               0.999999984              -0.000944170               0.000000000               0.999999984              -0.000955570              -0.000000000               0.999999984              -0.000706693               0.000130504               0.999999984              -0.000753421               0.000106523               0.999999984              -0.000772751               0.000095944               0.999999984              -0.000783206               0.000092459               0.999999984              -0.000791537               0.000092521               0.999999984              -0.000800111               0.000094401               0.999999984              -0.000809698               0.000097251               0.999999984              -0.000820454               0.000100392               0.999999984              -0.000832286               0.000103465               0.999999984              -0.000845012               0.000106052               0.999999984              -0.000858249               0.000107819               0.999999984              -0.000871709               0.000108481               0.999999984              -0.000885123               0.000107848               0.999999984              -0.000898152               0.000105767               0.999999984              -0.000910464               0.000101496               0.999999984              -0.000921575               0.000094220               0.999999984              -0.000930883               0.000082750               0.999999984              -0.000695094               0.000259779               0.999999984              -0.000730903               0.000212327               0.999999984              -0.000743590               0.000192266               0.999999984              -0.000750063               0.000186133               0.999999984              -0.000755937               0.000186877               0.999999984              -0.000762885               0.000191105               0.999999984              -0.000771037               0.000196906               0.999999984              -0.000780348               0.000203170               0.999999984              -0.000790542               0.000209131               0.999999984              -0.000801296               0.000214156               0.999999984              -0.000812239               0.000217673               0.999999984              -0.000822950               0.000219098               0.999999984              -0.000833121               0.000217953               0.999999984              -0.000842312               0.000213619               0.999999984              -0.000850021               0.000205142               0.999999984              -0.000855914               0.000191556               0.999999984              -0.000859773               0.000171116               0.999999984              -0.000675985               0.000386436               0.999999984              -0.000694495               0.000316840               0.999999984              -0.000697622               0.000289251               0.999999984              -0.000698808               0.000281896               0.999999984              -0.000701585               0.000284391               0.999999984              -0.000706457               0.000291470               0.999999984              -0.000712903               0.000300443               0.999999984              -0.000720427               0.000309776               0.999999984              -0.000728442               0.000318363               0.999999984              -0.000736318               0.000325604               0.999999984              -0.000743617               0.000330640               0.999999984              -0.000749944               0.000332708               0.999999984              -0.000754802               0.000330962               0.999999984              -0.000757786               0.000324636               0.999999984              -0.000758630               0.000313052               0.999999984              -0.000757164               0.000295333               0.999999984              -0.000753646               0.000270491               0.999999984              -0.000649719               0.000509189               0.999999984              -0.000646069               0.000419783               0.999999984              -0.000638474               0.000387238               0.999999984              -0.000634479               0.000380360               0.999999984              -0.000634662               0.000385582               0.999999984              -0.000637889               0.000395883               0.999999984              -0.000642808               0.000408127               0.999999984              -0.000648381               0.000420337               0.999999984              -0.000653698               0.000431369               0.999999984              -0.000657972               0.000440389               0.999999984              -0.000660695               0.000446516               0.999999984              -0.000661293               0.000448828               0.999999984              -0.000659344               0.000446413               0.999999984              -0.000654628               0.000438620               0.999999984              -0.000647236               0.000425310               0.999999984              -0.000637545               0.000406381               0.999999984              -0.000626264               0.000381807               0.999999984              -0.000616614               0.000627040               0.999999984              -0.000588045               0.000521277               0.999999984              -0.000570535               0.000486354               0.999999984              -0.000562873               0.000481305               0.999999984              -0.000561798               0.000489717               0.999999984              -0.000564241               0.000503458               0.999999984              -0.000567949               0.000518828               0.999999984              -0.000571405               0.000533682               0.999999984              -0.000573564               0.000546642               0.999999984              -0.000573626               0.000556927               0.999999984              -0.000570819               0.000563445               0.999999984              -0.000564620               0.000565334               0.999999984              -0.000554955               0.000562010               0.999999984              -0.000542040               0.000553391               0.999999984              -0.000526445               0.000539869               0.999999984              -0.000508924               0.000521900               0.999999984              -0.000490319               0.000500614               0.999999984              -0.000577384               0.000738881               0.999999984              -0.000523476               0.000621359               0.999999984              -0.000498551               0.000586110               0.999999984              -0.000489586               0.000583618               0.999999984              -0.000488805               0.000595230               0.999999984              -0.000491143               0.000612122               0.999999984              -0.000493634               0.000630180               0.999999984              -0.000494615               0.000647243               0.999999984              -0.000493035               0.000661729               0.999999984              -0.000488000               0.000672619               0.999999984              -0.000478778               0.000678693               0.999999984              -0.000465195               0.000679659               0.999999984              -0.000447629               0.000675508               0.999999984              -0.000426730               0.000666651               0.999999984              -0.000403381               0.000653868               0.999999984              -0.000378395               0.000638111               0.999999984              -0.000352436               0.000620469               0.999999984              -0.000532995               0.000843454               0.999999984              -0.000455632               0.000719683               0.999999984              -0.000426724               0.000685618               0.999999984              -0.000418993               0.000685622               0.999999984              -0.000419616               0.000700077               0.999999984              -0.000422107               0.000719561               0.999999984              -0.000423201               0.000739786               0.999999984              -0.000421293               0.000758356               0.999999984              -0.000415170               0.000773816               0.999999984              -0.000404085               0.000784641               0.999999984              -0.000387606               0.000789959               0.999999984              -0.000366055               0.000790099               0.999999984              -0.000340159               0.000785657               0.999999984              -0.000310968               0.000777369               0.999999984              -0.000279426               0.000766217               0.999999984              -0.000246282               0.000753119               0.999999984              -0.000212154               0.000738864               0.999999984              -0.000484832               0.000939045               0.999999984              -0.000386837               0.000816189               0.999999984              -0.000358684               0.000783585               0.999999984              -0.000353810               0.000785549               0.999999984              -0.000356409               0.000802282               0.999999984              -0.000358945               0.000823878               0.999999984              -0.000358253               0.000845710               0.999999984              -0.000352735               0.000865307               0.999999984              -0.000341185               0.000881014               0.999999984              -0.000322893               0.000891516               0.999999984              -0.000298029               0.000896239               0.999999984              -0.000267351               0.000896093               0.999999984              -0.000232193               0.000892085               0.999999984              -0.000193833               0.000885281               0.999999984              -0.000153249               0.000876516               0.999999984              -0.000111412               0.000866735               0.999999984              -0.000069133               0.000856499               0.999999984              -0.000435172               0.001029198               0.999999984              -0.000329703               0.000923378               0.999999984              -0.000298401               0.000886321               0.999999984              -0.000292104               0.000882131               0.999999984              -0.000294399               0.000893867               0.999999984              -0.000297653               0.000912565               0.999999984              -0.000298342               0.000933426               0.999999984              -0.000294925               0.000953750               0.999999984              -0.000286388               0.000972076               0.999999984              -0.000271898               0.000987049               0.999999984              -0.000251048               0.000997957               0.999999984              -0.000223863               0.001004528               0.999999984              -0.000191409               0.001007605               0.999999984              -0.000154801               0.001007764               0.999999984              -0.000114937               0.001006039               0.999999984              -0.000072908               0.001002936               0.999999984              -0.000029992               0.000999234               0.999999984              -0.000380937               0.001111057               0.999999984              -0.000275520               0.001026840               0.999999984              -0.000241209               0.000991532               0.999999984              -0.000232655               0.000983739               0.999999984              -0.000233730               0.000991655               0.999999984              -0.000236916               0.001007817               0.999999984              -0.000238533               0.001027710               0.999999984              -0.000236631               0.001048619               0.999999984              -0.000230524               0.001068883               0.999999984              -0.000219249               0.001087340               0.999999984              -0.000202156               0.001103209               0.999999984              -0.000178956               0.001115803               0.999999984              -0.000149794               0.001125211               0.999999984              -0.000115609               0.001131904               0.999999984              -0.000077133               0.001136518               0.999999984              -0.000035370               0.001139761               0.999999984               0.000008449               0.001142300               0.999999984              -0.000323219               0.001182777               0.999999984              -0.000224275               0.001123453               0.999999984              -0.000188655               0.001094418               0.999999984              -0.000177702               0.001086524               0.999999984              -0.000176804               0.001092484               0.999999984              -0.000179255               0.001107056               0.999999984              -0.000181144               0.001126331               0.999999984              -0.000180323               0.001147876               0.999999984              -0.000176051               0.001169921               0.999999984              -0.000167444               0.001191452               0.999999984              -0.000153777               0.001211503               0.999999984              -0.000134544               0.001229387               0.999999984              -0.000109374               0.001244690               0.999999984              -0.000078397               0.001257553               0.999999984              -0.000042008               0.001268291               0.999999984              -0.000000791               0.001277467               0.999999984               0.000044368               0.001285826               0.999999984              -0.000262417               0.001243211               0.999999984              -0.000175830               0.001209433               0.999999984              -0.000141531               0.001189861               0.999999984              -0.000129070               0.001184862               0.999999984              -0.000126288               0.001191086               0.999999984              -0.000127381               0.001205353               0.999999984              -0.000128942               0.001224838               0.999999984              -0.000128710               0.001247406               0.999999984              -0.000125716               0.001271613               0.999999984              -0.000119243               0.001296204               0.999999984              -0.000108746               0.001320220               0.999999984              -0.000093299               0.001343009               0.999999984              -0.000072444               0.001363992               0.999999984              -0.000045606               0.001382969               0.999999984              -0.000012337               0.001399942               0.999999984               0.000027353               0.001415300               0.999999984               0.000073452               0.001429525               0.999999984              -0.000199118               0.001291280               0.999999984              -0.000129837               0.001280854               0.999999984              -0.000100012               0.001272152               0.999999984              -0.000087724               0.001271976               0.999999984              -0.000083753               0.001280332               0.999999984              -0.000083563               0.001295577               0.999999984              -0.000084440               0.001316038               0.999999984              -0.000084382               0.001340141               0.999999984              -0.000082348               0.001366605               0.999999984              -0.000077676               0.001394354               0.999999984              -0.000069906               0.001422411               0.999999984              -0.000058428               0.001450070               0.999999984              -0.000042215               0.001476697               0.999999984              -0.000020391               0.001501939               0.999999984               0.000007830               0.001525502               0.999999984               0.000043514               0.001547363               0.999999984               0.000087705               0.001567790               0.999999984              -0.000133883               0.001326292               0.999999984              -0.000085659               0.001334509               0.999999984              -0.000063502               0.001335792               0.999999984              -0.000053545               0.001340885               0.999999984              -0.000049616               0.001352060               0.999999984              -0.000048801               0.001369076               0.999999984              -0.000049022               0.001390907               0.999999984              -0.000048990               0.001416589               0.999999984              -0.000047620               0.001445210               0.999999984              -0.000044587               0.001475826               0.999999984              -0.000039554               0.001507524               0.999999984              -0.000031913               0.001539600               0.999999984              -0.000020817               0.001571644               0.999999984              -0.000005294               0.001602947               0.999999984               0.000015540               0.001633001               0.999999984               0.000043111               0.001661485               0.999999984               0.000079421               0.001688178               0.999999984              -0.000067293               0.001347504               0.999999984              -0.000042601               0.001367844               0.999999984              -0.000030736               0.001376210               0.999999984              -0.000025154               0.001385368               0.999999984              -0.000022722               0.001398824               0.999999984              -0.000022025               0.001417259               0.999999984              -0.000022046               0.001440288               0.999999984              -0.000021924               0.001467259               0.999999984              -0.000021220               0.001497462               0.999999984              -0.000019791               0.001530098               0.999999984              -0.000017317               0.001564459               0.999999984              -0.000013456               0.001599847               0.999999984              -0.000007827               0.001635830               0.999999984               0.000000231               0.001671817               0.999999984               0.000011435               0.001707116               0.999999984               0.000026595               0.001741043               0.999999984               0.000047449               0.001772922               0.999999984               0.000000000               0.001354527               0.999999984              -0.000000000               0.001379081               0.999999984              -0.000000000               0.001390036               0.999999984              -0.000000000               0.001400733               0.999999984               0.000000000               0.001415123               0.999999984               0.000000000               0.001434140               0.999999984              -0.000000000               0.001457631               0.999999984               0.000000000               0.001485040               0.999999984              -0.000000000               0.001515765               0.999999984              -0.000000000               0.001549111               0.999999984               0.000000000               0.001584507               0.999999984              -0.000000000               0.001621214               0.999999984              -0.000000000               0.001658816               0.999999984              -0.000000000               0.001696724               0.999999984              -0.000000000               0.001734128               0.999999984              -0.000000000               0.001770251               0.999999984               0.000000000               0.001804175               0.999999984              -0.000710552               0.000000000               0.999999984              -0.000761015               0.000000000               0.999999984              -0.000782734               0.000000000               0.999999984              -0.000794566               0.000000000               0.999999984              -0.000803751               0.000000000               0.999999984              -0.000812892               0.000000000               0.999999984              -0.000822919              -0.000000000               0.999999984              -0.000834203               0.000000000               0.999999984              -0.000846688              -0.000000000               0.999999984              -0.000860192              -0.000000000               0.999999984              -0.000874343              -0.000000000               0.999999984              -0.000888795               0.000000000               0.999999984              -0.000903194               0.000000000               0.999999984              -0.000917409               0.000000000               0.999999984              -0.000931230               0.000000000               0.999999984              -0.000944170               0.000000000               0.999999984              -0.000955570              -0.000000000               0.999999984              -0.000706693              -0.000130504               0.999999984              -0.000753421              -0.000106523               0.999999984              -0.000772751              -0.000095944               0.999999984              -0.000783206              -0.000092459               0.999999984              -0.000791537              -0.000092521               0.999999984              -0.000800111              -0.000094401               0.999999984              -0.000809698              -0.000097251               0.999999984              -0.000820454              -0.000100392               0.999999984              -0.000832286              -0.000103465               0.999999984              -0.000845012              -0.000106052               0.999999984              -0.000858249              -0.000107819               0.999999984              -0.000871709              -0.000108481               0.999999984              -0.000885123              -0.000107848               0.999999984              -0.000898152              -0.000105767               0.999999984              -0.000910464              -0.000101496               0.999999984              -0.000921575              -0.000094220               0.999999984              -0.000930883              -0.000082750               0.999999984              -0.000695094              -0.000259779               0.999999984              -0.000730903              -0.000212327               0.999999984              -0.000743590              -0.000192266               0.999999984              -0.000750063              -0.000186133               0.999999984              -0.000755937              -0.000186877               0.999999984              -0.000762885              -0.000191105               0.999999984              -0.000771037              -0.000196906               0.999999984              -0.000780348              -0.000203170               0.999999984              -0.000790542              -0.000209131               0.999999984              -0.000801296              -0.000214156               0.999999984              -0.000812239              -0.000217673               0.999999984              -0.000822950              -0.000219098               0.999999984              -0.000833121              -0.000217953               0.999999984              -0.000842312              -0.000213619               0.999999984              -0.000850021              -0.000205142               0.999999984              -0.000855914              -0.000191556               0.999999984              -0.000859773              -0.000171116               0.999999984              -0.000675985              -0.000386436               0.999999984              -0.000694495              -0.000316840               0.999999984              -0.000697622              -0.000289251               0.999999984              -0.000698808              -0.000281896               0.999999984              -0.000701585              -0.000284391               0.999999984              -0.000706457              -0.000291470               0.999999984              -0.000712903              -0.000300443               0.999999984              -0.000720427              -0.000309776               0.999999984              -0.000728442              -0.000318363               0.999999984              -0.000736318              -0.000325604               0.999999984              -0.000743617              -0.000330640               0.999999984              -0.000749944              -0.000332708               0.999999984              -0.000754802              -0.000330962               0.999999984              -0.000757786              -0.000324636               0.999999984              -0.000758630              -0.000313052               0.999999984              -0.000757164              -0.000295333               0.999999984              -0.000753646              -0.000270491               0.999999984              -0.000649719              -0.000509189               0.999999984              -0.000646069              -0.000419783               0.999999984              -0.000638474              -0.000387238               0.999999984              -0.000634479              -0.000380360               0.999999984              -0.000634662              -0.000385582               0.999999984              -0.000637889              -0.000395883               0.999999984              -0.000642808              -0.000408127               0.999999984              -0.000648381              -0.000420337               0.999999984              -0.000653698              -0.000431369               0.999999984              -0.000657972              -0.000440389               0.999999984              -0.000660695              -0.000446516               0.999999984              -0.000661293              -0.000448828               0.999999984              -0.000659344              -0.000446413               0.999999984              -0.000654628              -0.000438620               0.999999984              -0.000647236              -0.000425310               0.999999984              -0.000637545              -0.000406381               0.999999984              -0.000626264              -0.000381807               0.999999984              -0.000616614              -0.000627040               0.999999984              -0.000588045              -0.000521277               0.999999984              -0.000570535              -0.000486354               0.999999984              -0.000562873              -0.000481305               0.999999984              -0.000561798              -0.000489717               0.999999984              -0.000564241              -0.000503458               0.999999984              -0.000567949              -0.000518828               0.999999984              -0.000571405              -0.000533682               0.999999984              -0.000573564              -0.000546642               0.999999984              -0.000573626              -0.000556927               0.999999984              -0.000570819              -0.000563445               0.999999984              -0.000564620              -0.000565334               0.999999984              -0.000554955              -0.000562010               0.999999984              -0.000542040              -0.000553391               0.999999984              -0.000526445              -0.000539869               0.999999984              -0.000508924              -0.000521900               0.999999984              -0.000490319              -0.000500614               0.999999984              -0.000577384              -0.000738881               0.999999984              -0.000523476              -0.000621359               0.999999984              -0.000498551              -0.000586110               0.999999984              -0.000489586              -0.000583618               0.999999984              -0.000488805              -0.000595230               0.999999984              -0.000491143              -0.000612122               0.999999984              -0.000493634              -0.000630180               0.999999984              -0.000494615              -0.000647243               0.999999984              -0.000493035              -0.000661729               0.999999984              -0.000488000              -0.000672619               0.999999984              -0.000478778              -0.000678693               0.999999984              -0.000465195              -0.000679659               0.999999984              -0.000447629              -0.000675508               0.999999984              -0.000426730              -0.000666651               0.999999984              -0.000403381              -0.000653868               0.999999984              -0.000378395              -0.000638111               0.999999984              -0.000352436              -0.000620469               0.999999984              -0.000532995              -0.000843454               0.999999984              -0.000455632              -0.000719683               0.999999984              -0.000426724              -0.000685618               0.999999984              -0.000418993              -0.000685622               0.999999984              -0.000419616              -0.000700077               0.999999984              -0.000422107              -0.000719561               0.999999984              -0.000423201              -0.000739786               0.999999984              -0.000421293              -0.000758356               0.999999984              -0.000415170              -0.000773816               0.999999984              -0.000404085              -0.000784641               0.999999984              -0.000387606              -0.000789959               0.999999984              -0.000366055              -0.000790099               0.999999984              -0.000340159              -0.000785657               0.999999984              -0.000310968              -0.000777369               0.999999984              -0.000279426              -0.000766217               0.999999984              -0.000246282              -0.000753119               0.999999984              -0.000212154              -0.000738864               0.999999984              -0.000484832              -0.000939045               0.999999984              -0.000386837              -0.000816189               0.999999984              -0.000358684              -0.000783585               0.999999984              -0.000353810              -0.000785549               0.999999984              -0.000356409              -0.000802282               0.999999984              -0.000358945              -0.000823878               0.999999984              -0.000358253              -0.000845710               0.999999984              -0.000352735              -0.000865307               0.999999984              -0.000341185              -0.000881014               0.999999984              -0.000322893              -0.000891516               0.999999984              -0.000298029              -0.000896239               0.999999984              -0.000267351              -0.000896093               0.999999984              -0.000232193              -0.000892085               0.999999984              -0.000193833              -0.000885281               0.999999984              -0.000153249              -0.000876516               0.999999984              -0.000111412              -0.000866735               0.999999984              -0.000069133              -0.000856499               0.999999984              -0.000435172              -0.001029198               0.999999984              -0.000329703              -0.000923378               0.999999984              -0.000298401              -0.000886321               0.999999984              -0.000292104              -0.000882131               0.999999984              -0.000294399              -0.000893867               0.999999984              -0.000297653              -0.000912565               0.999999984              -0.000298342              -0.000933426               0.999999984              -0.000294925              -0.000953750               0.999999984              -0.000286388              -0.000972076               0.999999984              -0.000271898              -0.000987049               0.999999984              -0.000251048              -0.000997957               0.999999984              -0.000223863              -0.001004528               0.999999984              -0.000191409              -0.001007605               0.999999984              -0.000154801              -0.001007764               0.999999984              -0.000114937              -0.001006039               0.999999984              -0.000072908              -0.001002936               0.999999984              -0.000029992              -0.000999234               0.999999984              -0.000380937              -0.001111057               0.999999984              -0.000275520              -0.001026840               0.999999984              -0.000241209              -0.000991532               0.999999984              -0.000232655              -0.000983739               0.999999984              -0.000233730              -0.000991655               0.999999984              -0.000236916              -0.001007817               0.999999984              -0.000238533              -0.001027710               0.999999984              -0.000236631              -0.001048619               0.999999984              -0.000230524              -0.001068883               0.999999984              -0.000219249              -0.001087340               0.999999984              -0.000202156              -0.001103209               0.999999984              -0.000178956              -0.001115803               0.999999984              -0.000149794              -0.001125211               0.999999984              -0.000115609              -0.001131904               0.999999984              -0.000077133              -0.001136518               0.999999984              -0.000035370              -0.001139761               0.999999984               0.000008449              -0.001142300               0.999999984              -0.000323219              -0.001182777               0.999999984              -0.000224275              -0.001123453               0.999999984              -0.000188655              -0.001094418               0.999999984              -0.000177702              -0.001086524               0.999999984              -0.000176804              -0.001092484               0.999999984              -0.000179255              -0.001107056               0.999999984              -0.000181144              -0.001126331               0.999999984              -0.000180323              -0.001147876               0.999999984              -0.000176051              -0.001169921               0.999999984              -0.000167444              -0.001191452               0.999999984              -0.000153777              -0.001211503               0.999999984              -0.000134544              -0.001229387               0.999999984              -0.000109374              -0.001244690               0.999999984              -0.000078397              -0.001257553               0.999999984              -0.000042008              -0.001268291               0.999999984              -0.000000791              -0.001277467               0.999999984               0.000044368              -0.001285826               0.999999984              -0.000262417              -0.001243211               0.999999984              -0.000175830              -0.001209433               0.999999984              -0.000141531              -0.001189861               0.999999984              -0.000129070              -0.001184862               0.999999984              -0.000126288              -0.001191086               0.999999984              -0.000127381              -0.001205353               0.999999984              -0.000128942              -0.001224838               0.999999984              -0.000128710              -0.001247406               0.999999984              -0.000125716              -0.001271613               0.999999984              -0.000119243              -0.001296204               0.999999984              -0.000108746              -0.001320220               0.999999984              -0.000093299              -0.001343009               0.999999984              -0.000072444              -0.001363992               0.999999984              -0.000045606              -0.001382969               0.999999984              -0.000012337              -0.001399942               0.999999984               0.000027353              -0.001415300               0.999999984               0.000073452              -0.001429525               0.999999984              -0.000199118              -0.001291280               0.999999984              -0.000129837              -0.001280854               0.999999984              -0.000100012              -0.001272152               0.999999984              -0.000087724              -0.001271976               0.999999984              -0.000083753              -0.001280332               0.999999984              -0.000083563              -0.001295577               0.999999984              -0.000084440              -0.001316038               0.999999984              -0.000084382              -0.001340141               0.999999984              -0.000082348              -0.001366605               0.999999984              -0.000077676              -0.001394354               0.999999984              -0.000069906              -0.001422411               0.999999984              -0.000058428              -0.001450070               0.999999984              -0.000042215              -0.001476697               0.999999984              -0.000020391              -0.001501939               0.999999984               0.000007830              -0.001525502               0.999999984               0.000043514              -0.001547363               0.999999984               0.000087705              -0.001567790               0.999999984              -0.000133883              -0.001326292               0.999999984              -0.000085659              -0.001334509               0.999999984              -0.000063502              -0.001335792               0.999999984              -0.000053545              -0.001340885               0.999999984              -0.000049616              -0.001352060               0.999999984              -0.000048801              -0.001369076               0.999999984              -0.000049022              -0.001390907               0.999999984              -0.000048990              -0.001416589               0.999999984              -0.000047620              -0.001445210               0.999999984              -0.000044587              -0.001475826               0.999999984              -0.000039554              -0.001507524               0.999999984              -0.000031913              -0.001539600               0.999999984              -0.000020817              -0.001571644               0.999999984              -0.000005294              -0.001602947               0.999999984               0.000015540              -0.001633001               0.999999984               0.000043111              -0.001661485               0.999999984               0.000079421              -0.001688178               0.999999984              -0.000067293              -0.001347504               0.999999984              -0.000042601              -0.001367844               0.999999984              -0.000030736              -0.001376210               0.999999984              -0.000025154              -0.001385368               0.999999984              -0.000022722              -0.001398824               0.999999984              -0.000022025              -0.001417259               0.999999984              -0.000022046              -0.001440288               0.999999984              -0.000021924              -0.001467259               0.999999984              -0.000021220              -0.001497462               0.999999984              -0.000019791              -0.001530098               0.999999984              -0.000017317              -0.001564459               0.999999984              -0.000013456              -0.001599847               0.999999984              -0.000007827              -0.001635830               0.999999984               0.000000231              -0.001671817               0.999999984               0.000011435              -0.001707116               0.999999984               0.000026595              -0.001741043               0.999999984               0.000047449              -0.001772922               0.999999984              -0.000000000              -0.001354527               0.999999984               0.000000000              -0.001379081               0.999999984              -0.000000000              -0.001390036               0.999999984              -0.000000000              -0.001400733               0.999999984               0.000000000              -0.001415123               0.999999984              -0.000000000              -0.001434140               0.999999984               0.000000000              -0.001457631               0.999999984              -0.000000000              -0.001485040               0.999999984              -0.000000000              -0.001515765               0.999999984               0.000000000              -0.001549111               0.999999984              -0.000000000              -0.001584507               0.999999984              -0.000000000              -0.001621214               0.999999984              -0.000000000              -0.001658816               0.999999984               0.000000000              -0.001696724               0.999999984               0.000000000              -0.001734128               0.999999984              -0.000000000              -0.001770251               0.999999984               0.000000000              -0.001804175               0.999999984               0.000710552              -0.000000000               0.999999984               0.000761015               0.000000000               0.999999984               0.000782734               0.000000000               0.999999984               0.000794566               0.000000000               0.999999984               0.000803751              -0.000000000               0.999999984               0.000812892               0.000000000               0.999999984               0.000822919               0.000000000               0.999999984               0.000834203              -0.000000000               0.999999984               0.000846688               0.000000000               0.999999984               0.000860192               0.000000000               0.999999984               0.000874343              -0.000000000               0.999999984               0.000888795               0.000000000               0.999999984               0.000903194               0.000000000               0.999999984               0.000917409              -0.000000000               0.999999984               0.000931230               0.000000000               0.999999984               0.000944170              -0.000000000               0.999999984               0.000955570               0.000000000               0.999999984               0.000706693              -0.000130504               0.999999984               0.000753421              -0.000106523               0.999999984               0.000772751              -0.000095944               0.999999984               0.000783206              -0.000092459               0.999999984               0.000791537              -0.000092521               0.999999984               0.000800111              -0.000094401               0.999999984               0.000809698              -0.000097251               0.999999984               0.000820454              -0.000100392               0.999999984               0.000832286              -0.000103465               0.999999984               0.000845012              -0.000106052               0.999999984               0.000858249              -0.000107819               0.999999984               0.000871709              -0.000108481               0.999999984               0.000885123              -0.000107848               0.999999984               0.000898152              -0.000105767               0.999999984               0.000910464              -0.000101496               0.999999984               0.000921575              -0.000094220               0.999999984               0.000930883              -0.000082750               0.999999984               0.000695094              -0.000259779               0.999999984               0.000730903              -0.000212327               0.999999984               0.000743590              -0.000192266               0.999999984               0.000750063              -0.000186133               0.999999984               0.000755937              -0.000186877               0.999999984               0.000762885              -0.000191105               0.999999984               0.000771037              -0.000196906               0.999999984               0.000780348              -0.000203170               0.999999984               0.000790542              -0.000209131               0.999999984               0.000801296              -0.000214156               0.999999984               0.000812239              -0.000217673               0.999999984               0.000822950              -0.000219098               0.999999984               0.000833121              -0.000217953               0.999999984               0.000842312              -0.000213619               0.999999984               0.000850021              -0.000205142               0.999999984               0.000855914              -0.000191556               0.999999984               0.000859773              -0.000171116               0.999999984               0.000675985              -0.000386436               0.999999984               0.000694495              -0.000316840               0.999999984               0.000697622              -0.000289251               0.999999984               0.000698808              -0.000281896               0.999999984               0.000701585              -0.000284391               0.999999984               0.000706457              -0.000291470               0.999999984               0.000712903              -0.000300443               0.999999984               0.000720427              -0.000309776               0.999999984               0.000728442              -0.000318363               0.999999984               0.000736318              -0.000325604               0.999999984               0.000743617              -0.000330640               0.999999984               0.000749944              -0.000332708               0.999999984               0.000754802              -0.000330962               0.999999984               0.000757786              -0.000324636               0.999999984               0.000758630              -0.000313052               0.999999984               0.000757164              -0.000295333               0.999999984               0.000753646              -0.000270491               0.999999984               0.000649719              -0.000509189               0.999999984               0.000646069              -0.000419783               0.999999984               0.000638474              -0.000387238               0.999999984               0.000634479              -0.000380360               0.999999984               0.000634662              -0.000385582               0.999999984               0.000637889              -0.000395883               0.999999984               0.000642808              -0.000408127               0.999999984               0.000648381              -0.000420337               0.999999984               0.000653698              -0.000431369               0.999999984               0.000657972              -0.000440389               0.999999984               0.000660695              -0.000446516               0.999999984               0.000661293              -0.000448828               0.999999984               0.000659344              -0.000446413               0.999999984               0.000654628              -0.000438620               0.999999984               0.000647236              -0.000425310               0.999999984               0.000637545              -0.000406381               0.999999984               0.000626264              -0.000381807               0.999999984               0.000616614              -0.000627040               0.999999984               0.000588045              -0.000521277               0.999999984               0.000570535              -0.000486354               0.999999984               0.000562873              -0.000481305               0.999999984               0.000561798              -0.000489717               0.999999984               0.000564241              -0.000503458               0.999999984               0.000567949              -0.000518828               0.999999984               0.000571405              -0.000533682               0.999999984               0.000573564              -0.000546642               0.999999984               0.000573626              -0.000556927               0.999999984               0.000570819              -0.000563445               0.999999984               0.000564620              -0.000565334               0.999999984               0.000554955              -0.000562010               0.999999984               0.000542040              -0.000553391               0.999999984               0.000526445              -0.000539869               0.999999984               0.000508924              -0.000521900               0.999999984               0.000490319              -0.000500614               0.999999984               0.000577384              -0.000738881               0.999999984               0.000523476              -0.000621359               0.999999984               0.000498551              -0.000586110               0.999999984               0.000489586              -0.000583618               0.999999984               0.000488805              -0.000595230               0.999999984               0.000491143              -0.000612122               0.999999984               0.000493634              -0.000630180               0.999999984               0.000494615              -0.000647243               0.999999984               0.000493035              -0.000661729               0.999999984               0.000488000              -0.000672619               0.999999984               0.000478778              -0.000678693               0.999999984               0.000465195              -0.000679659               0.999999984               0.000447629              -0.000675508               0.999999984               0.000426730              -0.000666651               0.999999984               0.000403381              -0.000653868               0.999999984               0.000378395              -0.000638111               0.999999984               0.000352436              -0.000620469               0.999999984               0.000532995              -0.000843454               0.999999984               0.000455632              -0.000719683               0.999999984               0.000426724              -0.000685618               0.999999984               0.000418993              -0.000685622               0.999999984               0.000419616              -0.000700077               0.999999984               0.000422107              -0.000719561               0.999999984               0.000423201              -0.000739786               0.999999984               0.000421293              -0.000758356               0.999999984               0.000415170              -0.000773816               0.999999984               0.000404085              -0.000784641               0.999999984               0.000387606              -0.000789959               0.999999984               0.000366055              -0.000790099               0.999999984               0.000340159              -0.000785657               0.999999984               0.000310968              -0.000777369               0.999999984               0.000279426              -0.000766217               0.999999984               0.000246282              -0.000753119               0.999999984               0.000212154              -0.000738864               0.999999984               0.000484832              -0.000939045               0.999999984               0.000386837              -0.000816189               0.999999984               0.000358684              -0.000783585               0.999999984               0.000353810              -0.000785549               0.999999984               0.000356409              -0.000802282               0.999999984               0.000358945              -0.000823878               0.999999984               0.000358253              -0.000845710               0.999999984               0.000352735              -0.000865307               0.999999984               0.000341185              -0.000881014               0.999999984               0.000322893              -0.000891516               0.999999984               0.000298029              -0.000896239               0.999999984               0.000267351              -0.000896093               0.999999984               0.000232193              -0.000892085               0.999999984               0.000193833              -0.000885281               0.999999984               0.000153249              -0.000876516               0.999999984               0.000111412              -0.000866735               0.999999984               0.000069133              -0.000856499               0.999999984               0.000435172              -0.001029198               0.999999984               0.000329703              -0.000923378               0.999999984               0.000298401              -0.000886321               0.999999984               0.000292104              -0.000882131               0.999999984               0.000294399              -0.000893867               0.999999984               0.000297653              -0.000912565               0.999999984               0.000298342              -0.000933426               0.999999984               0.000294925              -0.000953750               0.999999984               0.000286388              -0.000972076               0.999999984               0.000271898              -0.000987049               0.999999984               0.000251048              -0.000997957               0.999999984               0.000223863              -0.001004528               0.999999984               0.000191409              -0.001007605               0.999999984               0.000154801              -0.001007764               0.999999984               0.000114937              -0.001006039               0.999999984               0.000072908              -0.001002936               0.999999984               0.000029992              -0.000999234               0.999999984               0.000380937              -0.001111057               0.999999984               0.000275520              -0.001026840               0.999999984               0.000241209              -0.000991532               0.999999984               0.000232655              -0.000983739               0.999999984               0.000233730              -0.000991655               0.999999984               0.000236916              -0.001007817               0.999999984               0.000238533              -0.001027710               0.999999984               0.000236631              -0.001048619               0.999999984               0.000230524              -0.001068883               0.999999984               0.000219249              -0.001087340               0.999999984               0.000202156              -0.001103209               0.999999984               0.000178956              -0.001115803               0.999999984               0.000149794              -0.001125211               0.999999984               0.000115609              -0.001131904               0.999999984               0.000077133              -0.001136518               0.999999984               0.000035370              -0.001139761               0.999999984              -0.000008449              -0.001142300               0.999999984               0.000323219              -0.001182777               0.999999984               0.000224275              -0.001123453               0.999999984               0.000188655              -0.001094418               0.999999984               0.000177702              -0.001086524               0.999999984               0.000176804              -0.001092484               0.999999984               0.000179255              -0.001107056               0.999999984               0.000181144              -0.001126331               0.999999984               0.000180323              -0.001147876               0.999999984               0.000176051              -0.001169921               0.999999984               0.000167444              -0.001191452               0.999999984               0.000153777              -0.001211503               0.999999984               0.000134544              -0.001229387               0.999999984               0.000109374              -0.001244690               0.999999984               0.000078397              -0.001257553               0.999999984               0.000042008              -0.001268291               0.999999984               0.000000791              -0.001277467               0.999999984              -0.000044368              -0.001285826               0.999999984               0.000262417              -0.001243211               0.999999984               0.000175830              -0.001209433               0.999999984               0.000141531              -0.001189861               0.999999984               0.000129070              -0.001184862               0.999999984               0.000126288              -0.001191086               0.999999984               0.000127381              -0.001205353               0.999999984               0.000128942              -0.001224838               0.999999984               0.000128710              -0.001247406               0.999999984               0.000125716              -0.001271613               0.999999984               0.000119243              -0.001296204               0.999999984               0.000108746              -0.001320220               0.999999984               0.000093299              -0.001343009               0.999999984               0.000072444              -0.001363992               0.999999984               0.000045606              -0.001382969               0.999999984               0.000012337              -0.001399942               0.999999984              -0.000027353              -0.001415300               0.999999984              -0.000073452              -0.001429525               0.999999984               0.000199118              -0.001291280               0.999999984               0.000129837              -0.001280854               0.999999984               0.000100012              -0.001272152               0.999999984               0.000087724              -0.001271976               0.999999984               0.000083753              -0.001280332               0.999999984               0.000083563              -0.001295577               0.999999984               0.000084440              -0.001316038               0.999999984               0.000084382              -0.001340141               0.999999984               0.000082348              -0.001366605               0.999999984               0.000077676              -0.001394354               0.999999984               0.000069906              -0.001422411               0.999999984               0.000058428              -0.001450070               0.999999984               0.000042215              -0.001476697               0.999999984               0.000020391              -0.001501939               0.999999984              -0.000007830              -0.001525502               0.999999984              -0.000043514              -0.001547363               0.999999984              -0.000087705              -0.001567790               0.999999984               0.000133883              -0.001326292               0.999999984               0.000085659              -0.001334509               0.999999984               0.000063502              -0.001335792               0.999999984               0.000053545              -0.001340885               0.999999984               0.000049616              -0.001352060               0.999999984               0.000048801              -0.001369076               0.999999984               0.000049022              -0.001390907               0.999999984               0.000048990              -0.001416589               0.999999984               0.000047620              -0.001445210               0.999999984               0.000044587              -0.001475826               0.999999984               0.000039554              -0.001507524               0.999999984               0.000031913              -0.001539600               0.999999984               0.000020817              -0.001571644               0.999999984               0.000005294              -0.001602947               0.999999984              -0.000015540              -0.001633001               0.999999984              -0.000043111              -0.001661485               0.999999984              -0.000079421              -0.001688178               0.999999984               0.000067293              -0.001347504               0.999999984               0.000042601              -0.001367844               0.999999984               0.000030736              -0.001376210               0.999999984               0.000025154              -0.001385368               0.999999984               0.000022722              -0.001398824               0.999999984               0.000022025              -0.001417259               0.999999984               0.000022046              -0.001440288               0.999999984               0.000021924              -0.001467259               0.999999984               0.000021220              -0.001497462               0.999999984               0.000019791              -0.001530098               0.999999984               0.000017317              -0.001564459               0.999999984               0.000013456              -0.001599847               0.999999984               0.000007827              -0.001635830               0.999999984              -0.000000231              -0.001671817               0.999999984              -0.000011435              -0.001707116               0.999999984              -0.000026595              -0.001741043               0.999999984              -0.000047449              -0.001772922               0.999999984              -0.000000000              -0.001354527               0.999999984               0.000000000              -0.001379081               0.999999984              -0.000000000              -0.001390036               0.999999984              -0.000000000              -0.001400733               0.999999984               0.000000000              -0.001415123               0.999999984              -0.000000000              -0.001434140               0.999999984               0.000000000              -0.001457631               0.999999984              -0.000000000              -0.001485040               0.999999984              -0.000000000              -0.001515765               0.999999984               0.000000000              -0.001549111               0.999999984              -0.000000000              -0.001584507               0.999999984              -0.000000000              -0.001621214               0.999999984              -0.000000000              -0.001658816               0.999999984               0.000000000              -0.001696724               0.999999984               0.000000000              -0.001734128               0.999999984              -0.000000000              -0.001770251               0.999999984               0.000000000              -0.001804175               0.999999984               0.000710552              -0.000000000               0.999999984               0.000761015               0.000000000               0.999999984               0.000782734               0.000000000               0.999999984               0.000794566               0.000000000               0.999999984               0.000803751              -0.000000000               0.999999984               0.000812892               0.000000000               0.999999984               0.000822919               0.000000000               0.999999984               0.000834203              -0.000000000               0.999999984               0.000846688               0.000000000               0.999999984               0.000860192               0.000000000               0.999999984               0.000874343              -0.000000000               0.999999984               0.000888795               0.000000000               0.999999984               0.000903194               0.000000000               0.999999984               0.000917409              -0.000000000               0.999999984               0.000931230               0.000000000               0.999999984               0.000944170              -0.000000000               0.999999984               0.000955570               0.000000000               0.999999984               0.000706693               0.000130504               0.999999984               0.000753421               0.000106523               0.999999984               0.000772751               0.000095944               0.999999984               0.000783206               0.000092459               0.999999984               0.000791537               0.000092521               0.999999984               0.000800111               0.000094401               0.999999984               0.000809698               0.000097251               0.999999984               0.000820454               0.000100392               0.999999984               0.000832286               0.000103465               0.999999984               0.000845012               0.000106052               0.999999984               0.000858249               0.000107819               0.999999984               0.000871709               0.000108481               0.999999984               0.000885123               0.000107848               0.999999984               0.000898152               0.000105767               0.999999984               0.000910464               0.000101496               0.999999984               0.000921575               0.000094220               0.999999984               0.000930883               0.000082750               0.999999984               0.000695094               0.000259779               0.999999984               0.000730903               0.000212327               0.999999984               0.000743590               0.000192266               0.999999984               0.000750063               0.000186133               0.999999984               0.000755937               0.000186877               0.999999984               0.000762885               0.000191105               0.999999984               0.000771037               0.000196906               0.999999984               0.000780348               0.000203170               0.999999984               0.000790542               0.000209131               0.999999984               0.000801296               0.000214156               0.999999984               0.000812239               0.000217673               0.999999984               0.000822950               0.000219098               0.999999984               0.000833121               0.000217953               0.999999984               0.000842312               0.000213619               0.999999984               0.000850021               0.000205142               0.999999984               0.000855914               0.000191556               0.999999984               0.000859773               0.000171116               0.999999984               0.000675985               0.000386436               0.999999984               0.000694495               0.000316840               0.999999984               0.000697622               0.000289251               0.999999984               0.000698808               0.000281896               0.999999984               0.000701585               0.000284391               0.999999984               0.000706457               0.000291470               0.999999984               0.000712903               0.000300443               0.999999984               0.000720427               0.000309776               0.999999984               0.000728442               0.000318363               0.999999984               0.000736318               0.000325604               0.999999984               0.000743617               0.000330640               0.999999984               0.000749944               0.000332708               0.999999984               0.000754802               0.000330962               0.999999984               0.000757786               0.000324636               0.999999984               0.000758630               0.000313052               0.999999984               0.000757164               0.000295333               0.999999984               0.000753646               0.000270491               0.999999984               0.000649719               0.000509189               0.999999984               0.000646069               0.000419783               0.999999984               0.000638474               0.000387238               0.999999984               0.000634479               0.000380360               0.999999984               0.000634662               0.000385582               0.999999984               0.000637889               0.000395883               0.999999984               0.000642808               0.000408127               0.999999984               0.000648381               0.000420337               0.999999984               0.000653698               0.000431369               0.999999984               0.000657972               0.000440389               0.999999984               0.000660695               0.000446516               0.999999984               0.000661293               0.000448828               0.999999984               0.000659344               0.000446413               0.999999984               0.000654628               0.000438620               0.999999984               0.000647236               0.000425310               0.999999984               0.000637545               0.000406381               0.999999984               0.000626264               0.000381807               0.999999984               0.000616614               0.000627040               0.999999984               0.000588045               0.000521277               0.999999984               0.000570535               0.000486354               0.999999984               0.000562873               0.000481305               0.999999984               0.000561798               0.000489717               0.999999984               0.000564241               0.000503458               0.999999984               0.000567949               0.000518828               0.999999984               0.000571405               0.000533682               0.999999984               0.000573564               0.000546642               0.999999984               0.000573626               0.000556927               0.999999984               0.000570819               0.000563445               0.999999984               0.000564620               0.000565334               0.999999984               0.000554955               0.000562010               0.999999984               0.000542040               0.000553391               0.999999984               0.000526445               0.000539869               0.999999984               0.000508924               0.000521900               0.999999984               0.000490319               0.000500614               0.999999984               0.000577384               0.000738881               0.999999984               0.000523476               0.000621359               0.999999984               0.000498551               0.000586110               0.999999984               0.000489586               0.000583618               0.999999984               0.000488805               0.000595230               0.999999984               0.000491143               0.000612122               0.999999984               0.000493634               0.000630180               0.999999984               0.000494615               0.000647243               0.999999984               0.000493035               0.000661729               0.999999984               0.000488000               0.000672619               0.999999984               0.000478778               0.000678693               0.999999984               0.000465195               0.000679659               0.999999984               0.000447629               0.000675508               0.999999984               0.000426730               0.000666651               0.999999984               0.000403381               0.000653868               0.999999984               0.000378395               0.000638111               0.999999984               0.000352436               0.000620469               0.999999984               0.000532995               0.000843454               0.999999984               0.000455632               0.000719683               0.999999984               0.000426724               0.000685618               0.999999984               0.000418993               0.000685622               0.999999984               0.000419616               0.000700077               0.999999984               0.000422107               0.000719561               0.999999984               0.000423201               0.000739786               0.999999984               0.000421293               0.000758356               0.999999984               0.000415170               0.000773816               0.999999984               0.000404085               0.000784641               0.999999984               0.000387606               0.000789959               0.999999984               0.000366055               0.000790099               0.999999984               0.000340159               0.000785657               0.999999984               0.000310968               0.000777369               0.999999984               0.000279426               0.000766217               0.999999984               0.000246282               0.000753119               0.999999984               0.000212154               0.000738864               0.999999984               0.000484832               0.000939045               0.999999984               0.000386837               0.000816189               0.999999984               0.000358684               0.000783585               0.999999984               0.000353810               0.000785549               0.999999984               0.000356409               0.000802282               0.999999984               0.000358945               0.000823878               0.999999984               0.000358253               0.000845710               0.999999984               0.000352735               0.000865307               0.999999984               0.000341185               0.000881014               0.999999984               0.000322893               0.000891516               0.999999984               0.000298029               0.000896239               0.999999984               0.000267351               0.000896093               0.999999984               0.000232193               0.000892085               0.999999984               0.000193833               0.000885281               0.999999984               0.000153249               0.000876516               0.999999984               0.000111412               0.000866735               0.999999984               0.000069133               0.000856499               0.999999984               0.000435172               0.001029198               0.999999984               0.000329703               0.000923378               0.999999984               0.000298401               0.000886321               0.999999984               0.000292104               0.000882131               0.999999984               0.000294399               0.000893867               0.999999984               0.000297653               0.000912565               0.999999984               0.000298342               0.000933426               0.999999984               0.000294925               0.000953750               0.999999984               0.000286388               0.000972076               0.999999984               0.000271898               0.000987049               0.999999984               0.000251048               0.000997957               0.999999984               0.000223863               0.001004528               0.999999984               0.000191409               0.001007605               0.999999984               0.000154801               0.001007764               0.999999984               0.000114937               0.001006039               0.999999984               0.000072908               0.001002936               0.999999984               0.000029992               0.000999234               0.999999984               0.000380937               0.001111057               0.999999984               0.000275520               0.001026840               0.999999984               0.000241209               0.000991532               0.999999984               0.000232655               0.000983739               0.999999984               0.000233730               0.000991655               0.999999984               0.000236916               0.001007817               0.999999984               0.000238533               0.001027710               0.999999984               0.000236631               0.001048619               0.999999984               0.000230524               0.001068883               0.999999984               0.000219249               0.001087340               0.999999984               0.000202156               0.001103209               0.999999984               0.000178956               0.001115803               0.999999984               0.000149794               0.001125211               0.999999984               0.000115609               0.001131904               0.999999984               0.000077133               0.001136518               0.999999984               0.000035370               0.001139761               0.999999984              -0.000008449               0.001142300               0.999999984               0.000323219               0.001182777               0.999999984               0.000224275               0.001123453               0.999999984               0.000188655               0.001094418               0.999999984               0.000177702               0.001086524               0.999999984               0.000176804               0.001092484               0.999999984               0.000179255               0.001107056               0.999999984               0.000181144               0.001126331               0.999999984               0.000180323               0.001147876               0.999999984               0.000176051               0.001169921               0.999999984               0.000167444               0.001191452               0.999999984               0.000153777               0.001211503               0.999999984               0.000134544               0.001229387               0.999999984               0.000109374               0.001244690               0.999999984               0.000078397               0.001257553               0.999999984               0.000042008               0.001268291               0.999999984               0.000000791               0.001277467               0.999999984              -0.000044368               0.001285826               0.999999984               0.000262417               0.001243211               0.999999984               0.000175830               0.001209433               0.999999984               0.000141531               0.001189861               0.999999984               0.000129070               0.001184862               0.999999984               0.000126288               0.001191086               0.999999984               0.000127381               0.001205353               0.999999984               0.000128942               0.001224838               0.999999984               0.000128710               0.001247406               0.999999984               0.000125716               0.001271613               0.999999984               0.000119243               0.001296204               0.999999984               0.000108746               0.001320220               0.999999984               0.000093299               0.001343009               0.999999984               0.000072444               0.001363992               0.999999984               0.000045606               0.001382969               0.999999984               0.000012337               0.001399942               0.999999984              -0.000027353               0.001415300               0.999999984              -0.000073452               0.001429525               0.999999984               0.000199118               0.001291280               0.999999984               0.000129837               0.001280854               0.999999984               0.000100012               0.001272152               0.999999984               0.000087724               0.001271976               0.999999984               0.000083753               0.001280332               0.999999984               0.000083563               0.001295577               0.999999984               0.000084440               0.001316038               0.999999984               0.000084382               0.001340141               0.999999984               0.000082348               0.001366605               0.999999984               0.000077676               0.001394354               0.999999984               0.000069906               0.001422411               0.999999984               0.000058428               0.001450070               0.999999984               0.000042215               0.001476697               0.999999984               0.000020391               0.001501939               0.999999984              -0.000007830               0.001525502               0.999999984              -0.000043514               0.001547363               0.999999984              -0.000087705               0.001567790               0.999999984               0.000133883               0.001326292               0.999999984               0.000085659               0.001334509               0.999999984               0.000063502               0.001335792               0.999999984               0.000053545               0.001340885               0.999999984               0.000049616               0.001352060               0.999999984               0.000048801               0.001369076               0.999999984               0.000049022               0.001390907               0.999999984               0.000048990               0.001416589               0.999999984               0.000047620               0.001445210               0.999999984               0.000044587               0.001475826               0.999999984               0.000039554               0.001507524               0.999999984               0.000031913               0.001539600               0.999999984               0.000020817               0.001571644               0.999999984               0.000005294               0.001602947               0.999999984              -0.000015540               0.001633001               0.999999984              -0.000043111               0.001661485               0.999999984              -0.000079421               0.001688178               0.999999984               0.000067293               0.001347504               0.999999984               0.000042601               0.001367844               0.999999984               0.000030736               0.001376210               0.999999984               0.000025154               0.001385368               0.999999984               0.000022722               0.001398824               0.999999984               0.000022025               0.001417259               0.999999984               0.000022046               0.001440288               0.999999984               0.000021924               0.001467259               0.999999984               0.000021220               0.001497462               0.999999984               0.000019791               0.001530098               0.999999984               0.000017317               0.001564459               0.999999984               0.000013456               0.001599847               0.999999984               0.000007827               0.001635830               0.999999984              -0.000000231               0.001671817               0.999999984              -0.000011435               0.001707116               0.999999984              -0.000026595               0.001741043               0.999999984              -0.000047449               0.001772922               0.999999984               0.000000000               0.001354527               0.999999984              -0.000000000               0.001379081               0.999999984              -0.000000000               0.001390036               0.999999984              -0.000000000               0.001400733               0.999999984               0.000000000               0.001415123               0.999999984               0.000000000               0.001434140               0.999999984              -0.000000000               0.001457631               0.999999984               0.000000000               0.001485040               0.999999984              -0.000000000               0.001515765               0.999999984              -0.000000000               0.001549111               0.999999984               0.000000000               0.001584507               0.999999984              -0.000000000               0.001621214               0.999999984              -0.000000000               0.001658816               0.999999984              -0.000000000               0.001696724               0.999999984              -0.000000000               0.001734128               0.999999984              -0.000000000               0.001770251               0.999999984               0.000000000               0.001804175               0.999999984 </DataArray>
<DataArray type="Float64"                                    Name="defo"                                                      NumberOfComponents=" 3" format="ascii">
             -0.000710552               0.000000000               0.999999984              -0.000761015               0.000000000               0.999999984              -0.000782734               0.000000000               0.999999984              -0.000794566               0.000000000               0.999999984              -0.000803751               0.000000000               0.999999984              -0.000812892               0.000000000               0.999999984              -0.000822919              -0.000000000               0.999999984              -0.000834203               0.000000000               0.999999984              -0.000846688              -0.000000000               0.999999984              -0.000860192              -0.000000000               0.999999984              -0.000874343              -0.000000000               0.999999984              -0.000888795               0.000000000               0.999999984              -0.000903194               0.000000000               0.999999984              -0.000917409               0.000000000               0.999999984              -0.000931230               0.000000000               0.999999984              -0.000944170               0.000000000               0.999999984              -0.000955570              -0.000000000               0.999999984              -0.000706693               0.000130504               0.999999984              -0.000753421               0.000106523               0.999999984              -0.000772751               0.000095944               0.999999984              -0.000783206               0.000092459               0.999999984              -0.000791537               0.000092521               0.999999984              -0.000800111               0.000094401               0.999999984              -0.000809698               0.000097251               0.999999984              -0.000820454               0.000100392               0.999999984              -0.000832286               0.000103465               0.999999984              -0.000845012               0.000106052               0.999999984              -0.000858249               0.000107819               0.999999984              -0.000871709               0.000108481               0.999999984              -0.000885123               0.000107848               0.999999984              -0.000898152               0.000105767               0.999999984              -0.000910464               0.000101496               0.999999984              -0.000921575               0.000094220               0.999999984              -0.000930883               0.000082750               0.999999984              -0.000695094               0.000259779               0.999999984              -0.000730903               0.000212327               0.999999984              -0.000743590               0.000192266               0.999999984              -0.000750063               0.000186133               0.999999984              -0.000755937               0.000186877               0.999999984              -0.000762885               0.000191105               0.999999984              -0.000771037               0.000196906               0.999999984              -0.000780348               0.000203170               0.999999984              -0.000790542               0.000209131               0.999999984              -0.000801296               0.000214156               0.999999984              -0.000812239               0.000217673               0.999999984              -0.000822950               0.000219098               0.999999984              -0.000833121               0.000217953               0.999999984              -0.000842312               0.000213619               0.999999984              -0.000850021               0.000205142               0.999999984              -0.000855914               0.000191556               0.999999984              -0.000859773               0.000171116               0.999999984              -0.000675985               0.000386436               0.999999984              -0.000694495               0.000316840               0.999999984              -0.000697622               0.000289251               0.999999984              -0.000698808               0.000281896               0.999999984              -0.000701585               0.000284391               0.999999984              -0.000706457               0.000291470               0.999999984              -0.000712903               0.000300443               0.999999984              -0.000720427               0.000309776               0.999999984              -0.000728442               0.000318363               0.999999984              -0.000736318               0.000325604               0.999999984              -0.000743617               0.000330640               0.999999984              -0.000749944               0.000332708               0.999999984              -0.000754802               0.000330962               0.999999984              -0.000757786               0.000324636               0.999999984              -0.000758630               0.000313052               0.999999984              -0.000757164               0.000295333               0.999999984              -0.000753646               0.000270491               0.999999984              -0.000649719               0.000509189               0.999999984              -0.000646069               0.000419783               0.999999984              -0.000638474               0.000387238               0.999999984              -0.000634479               0.000380360               0.999999984              -0.000634662               0.000385582               0.999999984              -0.000637889               0.000395883               0.999999984              -0.000642808               0.000408127               0.999999984              -0.000648381               0.000420337               0.999999984              -0.000653698               0.000431369               0.999999984              -0.000657972               0.000440389               0.999999984              -0.000660695               0.000446516               0.999999984              -0.000661293               0.000448828               0.999999984              -0.000659344               0.000446413               0.999999984              -0.000654628               0.000438620               0.999999984              -0.000647236               0.000425310               0.999999984              -0.000637545               0.000406381               0.999999984              -0.000626264               0.000381807               0.999999984              -0.000616614               0.000627040               0.999999984              -0.000588045               0.000521277               0.999999984              -0.000570535               0.000486354               0.999999984              -0.000562873               0.000481305               0.999999984              -0.000561798               0.000489717               0.999999984              -0.000564241               0.000503458               0.999999984              -0.000567949               0.000518828               0.999999984              -0.000571405               0.000533682               0.999999984              -0.000573564               0.000546642               0.999999984              -0.000573626               0.000556927               0.999999984              -0.000570819               0.000563445               0.999999984              -0.000564620               0.000565334               0.999999984              -0.000554955               0.000562010               0.999999984              -0.000542040               0.000553391               0.999999984              -0.000526445               0.000539869               0.999999984              -0.000508924               0.000521900               0.999999984              -0.000490319               0.000500614               0.999999984              -0.000577384               0.000738881               0.999999984              -0.000523476               0.000621359               0.999999984              -0.000498551               0.000586110               0.999999984              -0.000489586               0.000583618               0.999999984              -0.000488805               0.000595230               0.999999984              -0.000491143               0.000612122               0.999999984              -0.000493634               0.000630180               0.999999984              -0.000494615               0.000647243               0.999999984              -0.000493035               0.000661729               0.999999984              -0.000488000               0.000672619               0.999999984              -0.000478778               0.000678693               0.999999984              -0.000465195               0.000679659               0.999999984              -0.000447629               0.000675508               0.999999984              -0.000426730               0.000666651               0.999999984              -0.000403381               0.000653868               0.999999984              -0.000378395               0.000638111               0.999999984              -0.000352436               0.000620469               0.999999984              -0.000532995               0.000843454               0.999999984              -0.000455632               0.000719683               0.999999984              -0.000426724               0.000685618               0.999999984              -0.000418993               0.000685622               0.999999984              -0.000419616               0.000700077               0.999999984              -0.000422107               0.000719561               0.999999984              -0.000423201               0.000739786               0.999999984              -0.000421293               0.000758356               0.999999984              -0.000415170               0.000773816               0.999999984              -0.000404085               0.000784641               0.999999984              -0.000387606               0.000789959               0.999999984              -0.000366055               0.000790099               0.999999984              -0.000340159               0.000785657               0.999999984              -0.000310968               0.000777369               0.999999984              -0.000279426               0.000766217               0.999999984              -0.000246282               0.000753119               0.999999984              -0.000212154               0.000738864               0.999999984              -0.000484832               0.000939045               0.999999984              -0.000386837               0.000816189               0.999999984              -0.000358684               0.000783585               0.999999984              -0.000353810               0.000785549               0.999999984              -0.000356409               0.000802282               0.999999984              -0.000358945               0.000823878               0.999999984              -0.000358253               0.000845710               0.999999984              -0.000352735               0.000865307               0.999999984              -0.000341185               0.000881014               0.999999984              -0.000322893               0.000891516               0.999999984              -0.000298029               0.000896239               0.999999984              -0.000267351               0.000896093               0.999999984              -0.000232193               0.000892085               0.999999984              -0.000193833               0.000885281               0.999999984              -0.000153249               0.000876516               0.999999984              -0.000111412               0.000866735               0.999999984              -0.000069133               0.000856499               0.999999984              -0.000435172               0.001029198               0.999999984              -0.000329703               0.000923378               0.999999984              -0.000298401               0.000886321               0.999999984              -0.000292104               0.000882131               0.999999984              -0.000294399               0.000893867               0.999999984              -0.000297653               0.000912565               0.999999984              -0.000298342               0.000933426               0.999999984              -0.000294925               0.000953750               0.999999984              -0.000286388               0.000972076               0.999999984              -0.000271898               0.000987049               0.999999984              -0.000251048               0.000997957               0.999999984              -0.000223863               0.001004528               0.999999984              -0.000191409               0.001007605               0.999999984              -0.000154801               0.001007764               0.999999984              -0.000114937               0.001006039               0.999999984              -0.000072908               0.001002936               0.999999984              -0.000029992               0.000999234               0.999999984              -0.000380937               0.001111057               0.999999984              -0.000275520               0.001026840               0.999999984              -0.000241209               0.000991532               0.999999984              -0.000232655               0.000983739               0.999999984              -0.000233730               0.000991655               0.999999984              -0.000236916               0.001007817               0.999999984              -0.000238533               0.001027710               0.999999984              -0.000236631               0.001048619               0.999999984              -0.000230524               0.001068883               0.999999984              -0.000219249               0.001087340               0.999999984              -0.000202156               0.001103209               0.999999984              -0.000178956               0.001115803               0.999999984              -0.000149794               0.001125211               0.999999984              -0.000115609               0.001131904               0.999999984              -0.000077133               0.001136518               0.999999984              -0.000035370               0.001139761               0.999999984               0.000008449               0.001142300               0.999999984              -0.000323219               0.001182777               0.999999984              -0.000224275               0.001123453               0.999999984              -0.000188655               0.001094418               0.999999984              -0.000177702               0.001086524               0.999999984              -0.000176804               0.001092484               0.999999984              -0.000179255               0.001107056               0.999999984              -0.000181144               0.001126331               0.999999984              -0.000180323               0.001147876               0.999999984              -0.000176051               0.001169921               0.999999984              -0.000167444               0.001191452               0.999999984              -0.000153777               0.001211503               0.999999984              -0.000134544               0.001229387               0.999999984              -0.000109374               0.001244690               0.999999984              -0.000078397               0.001257553               0.999999984              -0.000042008               0.001268291               0.999999984              -0.000000791               0.001277467               0.999999984               0.000044368               0.001285826               0.999999984              -0.000262417               0.001243211               0.999999984              -0.000175830               0.001209433               0.999999984              -0.000141531               0.001189861               0.999999984              -0.000129070               0.001184862               0.999999984              -0.000126288               0.001191086               0.999999984              -0.000127381               0.001205353               0.999999984              -0.000128942               0.001224838               0.999999984              -0.000128710               0.001247406               0.999999984              -0.000125716               0.001271613               0.999999984              -0.000119243               0.001296204               0.999999984              -0.000108746               0.001320220               0.999999984              -0.000093299               0.001343009               0.999999984              -0.000072444               0.001363992               0.999999984              -0.000045606               0.001382969               0.999999984              -0.000012337               0.001399942               0.999999984               0.000027353               0.001415300               0.999999984               0.000073452               0.001429525               0.999999984              -0.000199118               0.001291280               0.999999984              -0.000129837               0.001280854               0.999999984              -0.000100012               0.001272152               0.999999984              -0.000087724               0.001271976               0.999999984              -0.000083753               0.001280332               0.999999984              -0.000083563               0.001295577               0.999999984              -0.000084440               0.001316038               0.999999984              -0.000084382               0.001340141               0.999999984              -0.000082348               0.001366605               0.999999984              -0.000077676               0.001394354               0.999999984              -0.000069906               0.001422411               0.999999984              -0.000058428               0.001450070               0.999999984              -0.000042215               0.001476697               0.999999984              -0.000020391               0.001501939               0.999999984               0.000007830               0.001525502               0.999999984               0.000043514               0.001547363               0.999999984               0.000087705               0.001567790               0.999999984              -0.000133883               0.001326292               0.999999984              -0.000085659               0.001334509               0.999999984              -0.000063502               0.001335792               0.999999984              -0.000053545               0.001340885               0.999999984              -0.000049616               0.001352060               0.999999984              -0.000048801               0.001369076               0.999999984              -0.000049022               0.001390907               0.999999984              -0.000048990               0.001416589               0.999999984              -0.000047620               0.001445210               0.999999984              -0.000044587               0.001475826               0.999999984              -0.000039554               0.001507524               0.999999984              -0.000031913               0.001539600               0.999999984              -0.000020817               0.001571644               0.999999984              -0.000005294               0.001602947               0.999999984               0.000015540               0.001633001               0.999999984               0.000043111               0.001661485               0.999999984               0.000079421               0.001688178               0.999999984              -0.000067293               0.001347504               0.999999984              -0.000042601               0.001367844               0.999999984              -0.000030736               0.001376210               0.999999984              -0.000025154               0.001385368               0.999999984              -0.000022722               0.001398824               0.999999984              -0.000022025               0.001417259               0.999999984              -0.000022046               0.001440288               0.999999984              -0.000021924               0.001467259               0.999999984              -0.000021220               0.001497462               0.999999984              -0.000019791               0.001530098               0.999999984              -0.000017317               0.001564459               0.999999984              -0.000013456               0.001599847               0.999999984              -0.000007827               0.001635830               0.999999984               0.000000231               0.001671817               0.999999984               0.000011435               0.001707116               0.999999984               0.000026595               0.001741043               0.999999984               0.000047449               0.001772922               0.999999984               0.000000000               0.001354527               0.999999984              -0.000000000               0.001379081               0.999999984              -0.000000000               0.001390036               0.999999984              -0.000000000               0.001400733               0.999999984               0.000000000               0.001415123               0.999999984               0.000000000               0.001434140               0.999999984              -0.000000000               0.001457631               0.999999984               0.000000000               0.001485040               0.999999984              -0.000000000               0.001515765               0.999999984              -0.000000000               0.001549111               0.999999984               0.000000000               0.001584507               0.999999984              -0.000000000               0.001621214               0.999999984              -0.000000000               0.001658816               0.999999984              -0.000000000               0.001696724               0.999999984              -0.000000000               0.001734128               0.999999984              -0.000000000               0.001770251               0.999999984               0.000000000               0.001804175               0.999999984              -0.000710552               0.000000000               0.999999984              -0.000761015               0.000000000               0.999999984              -0.000782734               0.000000000               0.999999984              -0.000794566               0.000000000               0.999999984              -0.000803751               0.000000000               0.999999984              -0.000812892               0.000000000               0.999999984              -0.000822919              -0.000000000               0.999999984              -0.000834203               0.000000000               0.999999984              -0.000846688              -0.000000000               0.999999984              -0.000860192              -0.000000000               0.999999984              -0.000874343              -0.000000000               0.999999984              -0.000888795               0.000000000               0.999999984              -0.000903194               0.000000000               0.999999984              -0.000917409               0.000000000               0.999999984              -0.000931230               0.000000000               0.999999984              -0.000944170               0.000000000               0.999999984              -0.000955570              -0.000000000               0.999999984              -0.000706693              -0.000130504               0.999999984              -0.000753421              -0.000106523               0.999999984              -0.000772751              -0.000095944               0.999999984              -0.000783206              -0.000092459               0.999999984              -0.000791537              -0.000092521               0.999999984              -0.000800111              -0.000094401               0.999999984              -0.000809698              -0.000097251               0.999999984              -0.000820454              -0.000100392               0.999999984              -0.000832286              -0.000103465               0.999999984              -0.000845012              -0.000106052               0.999999984              -0.000858249              -0.000107819               0.999999984              -0.000871709              -0.000108481               0.999999984              -0.000885123              -0.000107848               0.999999984              -0.000898152              -0.000105767               0.999999984              -0.000910464              -0.000101496               0.999999984              -0.000921575              -0.000094220               0.999999984              -0.000930883              -0.000082750               0.999999984              -0.000695094              -0.000259779               0.999999984              -0.000730903              -0.000212327               0.999999984              -0.000743590              -0.000192266               0.999999984              -0.000750063              -0.000186133               0.999999984              -0.000755937              -0.000186877               0.999999984              -0.000762885              -0.000191105               0.999999984              -0.000771037              -0.000196906               0.999999984              -0.000780348              -0.000203170               0.999999984              -0.000790542              -0.000209131               0.999999984              -0.000801296              -0.000214156               0.999999984              -0.000812239              -0.000217673               0.999999984              -0.000822950              -0.000219098               0.999999984              -0.000833121              -0.000217953               0.999999984              -0.000842312              -0.000213619               0.999999984              -0.000850021              -0.000205142               0.999999984              -0.000855914              -0.000191556               0.999999984              -0.000859773              -0.000171116               0.999999984              -0.000675985              -0.000386436               0.999999984              -0.000694495              -0.000316840               0.999999984              -0.000697622              -0.000289251               0.999999984              -0.000698808              -0.000281896               0.999999984              -0.000701585              -0.000284391               0.999999984              -0.000706457              -0.000291470               0.999999984              -0.000712903              -0.000300443               0.999999984              -0.000720427              -0.000309776               0.999999984              -0.000728442              -0.000318363               0.999999984              -0.000736318              -0.000325604               0.999999984              -0.000743617              -0.000330640               0.999999984              -0.000749944              -0.000332708               0.999999984              -0.000754802              -0.000330962               0.999999984              -0.000757786              -0.000324636               0.999999984              -0.000758630              -0.000313052               0.999999984              -0.000757164              -0.000295333               0.999999984              -0.000753646              -0.000270491               0.999999984              -0.000649719              -0.000509189               0.999999984              -0.000646069              -0.000419783               0.999999984              -0.000638474              -0.000387238               0.999999984              -0.000634479              -0.000380360               0.999999984              -0.000634662              -0.000385582               0.999999984              -0.000637889              -0.000395883               0.999999984              -0.000642808              -0.000408127               0.999999984              -0.000648381              -0.000420337               0.999999984              -0.000653698              -0.000431369               0.999999984              -0.000657972              -0.000440389               0.999999984              -0.000660695              -0.000446516               0.999999984              -0.000661293              -0.000448828               0.999999984              -0.000659344              -0.000446413               0.999999984              -0.000654628              -0.000438620               0.999999984              -0.000647236              -0.000425310               0.999999984              -0.000637545              -0.000406381               0.999999984              -0.000626264              -0.000381807               0.999999984              -0.000616614              -0.000627040               0.999999984              -0.000588045              -0.000521277               0.999999984              -0.000570535              -0.000486354               0.999999984              -0.000562873              -0.000481305               0.999999984              -0.000561798              -0.000489717               0.999999984              -0.000564241              -0.000503458               0.999999984              -0.000567949              -0.000518828               0.999999984              -0.000571405              -0.000533682               0.999999984              -0.000573564              -0.000546642               0.999999984              -0.000573626              -0.000556927               0.999999984              -0.000570819              -0.000563445               0.999999984              -0.000564620              -0.000565334               0.999999984              -0.000554955              -0.000562010               0.999999984              -0.000542040              -0.000553391               0.999999984              -0.000526445              -0.000539869               0.999999984              -0.000508924              -0.000521900               0.999999984              -0.000490319              -0.000500614               0.999999984              -0.000577384              -0.000738881               0.999999984              -0.000523476              -0.000621359               0.999999984              -0.000498551              -0.000586110               0.999999984              -0.000489586              -0.000583618               0.999999984              -0.000488805              -0.000595230               0.999999984              -0.000491143              -0.000612122               0.999999984              -0.000493634              -0.000630180               0.999999984              -0.000494615              -0.000647243               0.999999984              -0.000493035              -0.000661729               0.999999984              -0.000488000              -0.000672619               0.999999984              -0.000478778              -0.000678693               0.999999984              -0.000465195              -0.000679659               0.999999984              -0.000447629              -0.000675508               0.999999984              -0.000426730              -0.000666651               0.999999984              -0.000403381              -0.000653868               0.999999984              -0.000378395              -0.000638111               0.999999984              -0.000352436              -0.000620469               0.999999984              -0.000532995              -0.000843454               0.999999984              -0.000455632              -0.000719683               0.999999984              -0.000426724              -0.000685618               0.999999984              -0.000418993              -0.000685622               0.999999984              -0.000419616              -0.000700077               0.999999984              -0.000422107              -0.000719561               0.999999984              -0.000423201              -0.000739786               0.999999984              -0.000421293              -0.000758356               0.999999984              -0.000415170              -0.000773816               0.999999984              -0.000404085              -0.000784641               0.999999984              -0.000387606              -0.000789959               0.999999984              -0.000366055              -0.000790099               0.999999984              -0.000340159              -0.000785657               0.999999984              -0.000310968              -0.000777369               0.999999984              -0.000279426              -0.000766217               0.999999984              -0.000246282              -0.000753119               0.999999984              -0.000212154              -0.000738864               0.999999984              -0.000484832              -0.000939045               0.999999984              -0.000386837              -0.000816189               0.999999984              -0.000358684              -0.000783585               0.999999984              -0.000353810              -0.000785549               0.999999984              -0.000356409              -0.000802282               0.999999984              -0.000358945              -0.000823878               0.999999984              -0.000358253              -0.000845710               0.999999984              -0.000352735              -0.000865307               0.999999984              -0.000341185              -0.000881014               0.999999984              -0.000322893              -0.000891516               0.999999984              -0.000298029              -0.000896239               0.999999984              -0.000267351              -0.000896093               0.999999984              -0.000232193              -0.000892085               0.999999984              -0.000193833              -0.000885281               0.999999984              -0.000153249              -0.000876516               0.999999984              -0.000111412              -0.000866735               0.999999984              -0.000069133              -0.000856499               0.999999984              -0.000435172              -0.001029198               0.999999984              -0.000329703              -0.000923378               0.999999984              -0.000298401              -0.000886321               0.999999984              -0.000292104              -0.000882131               0.999999984              -0.000294399              -0.000893867               0.999999984              -0.000297653              -0.000912565               0.999999984              -0.000298342              -0.000933426               0.999999984              -0.000294925              -0.000953750               0.999999984              -0.000286388              -0.000972076               0.999999984              -0.000271898              -0.000987049               0.999999984              -0.000251048              -0.000997957               0.999999984              -0.000223863              -0.001004528               0.999999984              -0.000191409              -0.001007605               0.999999984              -0.000154801              -0.001007764               0.999999984              -0.000114937              -0.001006039               0.999999984              -0.000072908              -0.001002936               0.999999984              -0.000029992              -0.000999234               0.999999984              -0.000380937              -0.001111057               0.999999984              -0.000275520              -0.001026840               0.999999984              -0.000241209              -0.000991532               0.999999984              -0.000232655              -0.000983739               0.999999984              -0.000233730              -0.000991655               0.999999984              -0.000236916              -0.001007817               0.999999984              -0.000238533              -0.001027710               0.999999984              -0.000236631              -0.001048619               0.999999984              -0.000230524              -0.001068883               0.999999984              -0.000219249              -0.001087340               0.999999984              -0.000202156              -0.001103209               0.999999984              -0.000178956              -0.001115803               0.999999984              -0.000149794              -0.001125211               0.999999984              -0.000115609              -0.001131904               0.999999984              -0.000077133              -0.001136518               0.999999984              -0.000035370              -0.001139761               0.999999984               0.000008449              -0.001142300               0.999999984              -0.000323219              -0.001182777               0.999999984              -0.000224275              -0.001123453               0.999999984              -0.000188655              -0.001094418               0.999999984              -0.000177702              -0.001086524               0.999999984              -0.000176804              -0.001092484               0.999999984              -0.000179255              -0.001107056               0.999999984              -0.000181144              -0.001126331               0.999999984              -0.000180323              -0.001147876               0.999999984              -0.000176051              -0.001169921               0.999999984              -0.000167444              -0.001191452               0.999999984              -0.000153777              -0.001211503               0.999999984              -0.000134544              -0.001229387               0.999999984              -0.000109374              -0.001244690               0.999999984              -0.000078397              -0.001257553               0.999999984              -0.000042008              -0.001268291               0.999999984              -0.000000791              -0.001277467               0.999999984               0.000044368              -0.001285826               0.999999984              -0.000262417              -0.001243211               0.999999984              -0.000175830              -0.001209433               0.999999984              -0.000141531              -0.001189861               0.999999984              -0.000129070              -0.001184862               0.999999984              -0.000126288              -0.001191086               0.999999984              -0.000127381              -0.001205353               0.999999984              -0.000128942              -0.001224838               0.999999984              -0.000128710              -0.001247406               0.999999984              -0.000125716              -0.001271613               0.999999984              -0.000119243              -0.001296204               0.999999984              -0.000108746              -0.001320220               0.999999984              -0.000093299              -0.001343009               0.999999984              -0.000072444              -0.001363992               0.999999984              -0.000045606              -0.001382969               0.999999984              -0.000012337              -0.001399942               0.999999984               0.000027353              -0.001415300               0.999999984               0.000073452              -0.001429525               0.999999984              -0.000199118              -0.001291280               0.999999984              -0.000129837              -0.001280854               0.999999984              -0.000100012              -0.001272152               0.999999984              -0.000087724              -0.001271976               0.999999984              -0.000083753              -0.001280332               0.999999984              -0.000083563              -0.001295577               0.999999984              -0.000084440              -0.001316038               0.999999984              -0.000084382              -0.001340141               0.999999984              -0.000082348              -0.001366605               0.999999984              -0.000077676              -0.001394354               0.999999984              -0.000069906              -0.001422411               0.999999984              -0.000058428              -0.001450070               0.999999984              -0.000042215              -0.001476697               0.999999984              -0.000020391              -0.001501939               0.999999984               0.000007830              -0.001525502               0.999999984               0.000043514              -0.001547363               0.999999984               0.000087705              -0.001567790               0.999999984              -0.000133883              -0.001326292               0.999999984              -0.000085659              -0.001334509               0.999999984              -0.000063502              -0.001335792               0.999999984              -0.000053545              -0.001340885               0.999999984              -0.000049616              -0.001352060               0.999999984              -0.000048801              -0.001369076               0.999999984              -0.000049022              -0.001390907               0.999999984              -0.000048990              -0.001416589               0.999999984              -0.000047620              -0.001445210               0.999999984              -0.000044587              -0.001475826               0.999999984              -0.000039554              -0.001507524               0.999999984              -0.000031913              -0.001539600               0.999999984              -0.000020817              -0.001571644               0.999999984              -0.000005294              -0.001602947               0.999999984               0.000015540              -0.001633001               0.999999984               0.000043111              -0.001661485               0.999999984               0.000079421              -0.001688178               0.999999984              -0.000067293              -0.001347504               0.999999984              -0.000042601              -0.001367844               0.999999984              -0.000030736              -0.001376210               0.999999984              -0.000025154              -0.001385368               0.999999984              -0.000022722              -0.001398824               0.999999984              -0.000022025              -0.001417259               0.999999984              -0.000022046              -0.001440288               0.999999984              -0.000021924              -0.001467259               0.999999984              -0.000021220              -0.001497462               0.999999984              -0.000019791              -0.001530098               0.999999984              -0.000017317              -0.001564459               0.999999984              -0.000013456              -0.001599847               0.999999984              -0.000007827              -0.001635830               0.999999984               0.000000231              -0.001671817               0.999999984               0.000011435              -0.001707116               0.999999984               0.000026595              -0.001741043               0.999999984               0.000047449              -0.001772922               0.999999984              -0.000000000              -0.001354527               0.999999984               0.000000000              -0.001379081               0.999999984              -0.000000000              -0.001390036               0.999999984              -0.000000000              -0.001400733               0.999999984               0.000000000              -0.001415123               0.999999984              -0.000000000              -0.001434140               0.999999984               0.000000000              -0.001457631               0.999999984              -0.000000000              -0.001485040               0.999999984              -0.000000000              -0.001515765               0.999999984               0.000000000              -0.001549111               0.999999984              -0.000000000              -0.001584507               0.999999984              -0.000000000              -0.001621214               0.999999984              -0.000000000              -0.001658816               0.999999984               0.000000000              -0.001696724               0.999999984               0.000000000              -0.001734128               0.999999984              -0.000000000              -0.001770251               0.999999984               0.000000000              -0.001804175               0.999999984               0.000710552              -0.000000000               0.999999984               0.000761015               0.000000000               0.999999984               0.000782734               0.000000000               0.999999984               0.000794566               0.000000000               0.999999984               0.000803751              -0.000000000               0.999999984               0.000812892               0.000000000               0.999999984               0.000822919               0.000000000               0.999999984               0.000834203              -0.000000000               0.999999984               0.000846688               0.000000000               0.999999984               0.000860192               0.000000000               0.999999984               0.000874343              -0.000000000               0.999999984               0.000888795               0.000000000               0.999999984               0.000903194               0.000000000               0.999999984               0.000917409              -0.000000000               0.999999984               0.000931230               0.000000000               0.999999984               0.000944170              -0.000000000               0.999999984               0.000955570               0.000000000               0.999999984               0.000706693              -0.000130504               0.999999984               0.000753421              -0.000106523               0.999999984               0.000772751              -0.000095944               0.999999984               0.000783206              -0.000092459               0.999999984               0.000791537              -0.000092521               0.999999984               0.000800111              -0.000094401               0.999999984               0.000809698              -0.000097251               0.999999984               0.000820454              -0.000100392               0.999999984               0.000832286              -0.000103465               0.999999984               0.000845012              -0.000106052               0.999999984               0.000858249              -0.000107819               0.999999984               0.000871709              -0.000108481               0.999999984               0.000885123              -0.000107848               0.999999984               0.000898152              -0.000105767               0.999999984               0.000910464              -0.000101496               0.999999984               0.000921575              -0.000094220               0.999999984               0.000930883              -0.000082750               0.999999984               0.000695094              -0.000259779               0.999999984               0.000730903              -0.000212327               0.999999984               0.000743590              -0.000192266               0.999999984               0.000750063              -0.000186133               0.999999984               0.000755937              -0.000186877               0.999999984               0.000762885              -0.000191105               0.999999984               0.000771037              -0.000196906               0.999999984               0.000780348              -0.000203170               0.999999984               0.000790542              -0.000209131               0.999999984               0.000801296              -0.000214156               0.999999984               0.000812239              -0.000217673               0.999999984               0.000822950              -0.000219098               0.999999984               0.000833121              -0.000217953               0.999999984               0.000842312              -0.000213619               0.999999984               0.000850021              -0.000205142               0.999999984               0.000855914              -0.000191556               0.999999984               0.000859773              -0.000171116               0.999999984               0.000675985              -0.000386436               0.999999984               0.000694495              -0.000316840               0.999999984               0.000697622              -0.000289251               0.999999984               0.000698808              -0.000281896               0.999999984               0.000701585              -0.000284391               0.999999984               0.000706457              -0.000291470               0.999999984               0.000712903              -0.000300443               0.999999984               0.000720427              -0.000309776               0.999999984               0.000728442              -0.000318363               0.999999984               0.000736318              -0.000325604               0.999999984               0.000743617              -0.000330640               0.999999984               0.000749944              -0.000332708               0.999999984               0.000754802              -0.000330962               0.999999984               0.000757786              -0.000324636               0.999999984               0.000758630              -0.000313052               0.999999984               0.000757164              -0.000295333               0.999999984               0.000753646              -0.000270491               0.999999984               0.000649719              -0.000509189               0.999999984               0.000646069              -0.000419783               0.999999984               0.000638474              -0.000387238               0.999999984               0.000634479              -0.000380360               0.999999984               0.000634662              -0.000385582               0.999999984               0.000637889              -0.000395883               0.999999984               0.000642808              -0.000408127               0.999999984               0.000648381              -0.000420337               0.999999984               0.000653698              -0.000431369               0.999999984               0.000657972              -0.000440389               0.999999984               0.000660695              -0.000446516               0.999999984               0.000661293              -0.000448828               0.999999984               0.000659344              -0.000446413               0.999999984               0.000654628              -0.000438620               0.999999984               0.000647236              -0.000425310               0.999999984               0.000637545              -0.000406381               0.999999984               0.000626264              -0.000381807               0.999999984               0.000616614              -0.000627040               0.999999984               0.000588045              -0.000521277               0.999999984               0.000570535              -0.000486354               0.999999984               0.000562873              -0.000481305               0.999999984               0.000561798              -0.000489717               0.999999984               0.000564241              -0.000503458               0.999999984               0.000567949              -0.000518828               0.999999984               0.000571405              -0.000533682               0.999999984               0.000573564              -0.000546642               0.999999984               0.000573626              -0.000556927               0.999999984               0.000570819              -0.000563445               0.999999984               0.000564620              -0.000565334               0.999999984               0.000554955              -0.000562010               0.999999984               0.000542040              -0.000553391               0.999999984               0.000526445              -0.000539869               0.999999984               0.000508924              -0.000521900               0.999999984               0.000490319              -0.000500614               0.999999984               0.000577384              -0.000738881               0.999999984               0.000523476              -0.000621359               0.999999984               0.000498551              -0.000586110               0.999999984               0.000489586              -0.000583618               0.999999984               0.000488805              -0.000595230               0.999999984               0.000491143              -0.000612122               0.999999984               0.000493634              -0.000630180               0.999999984               0.000494615              -0.000647243               0.999999984               0.000493035              -0.000661729               0.999999984               0.000488000              -0.000672619               0.999999984               0.000478778              -0.000678693               0.999999984               0.000465195              -0.000679659               0.999999984               0.000447629              -0.000675508               0.999999984               0.000426730              -0.000666651               0.999999984               0.000403381              -0.000653868               0.999999984               0.000378395              -0.000638111               0.999999984               0.000352436              -0.000620469               0.999999984               0.000532995              -0.000843454               0.999999984               0.000455632              -0.000719683               0.999999984               0.000426724              -0.000685618               0.999999984               0.000418993              -0.000685622               0.999999984               0.000419616              -0.000700077               0.999999984               0.000422107              -0.000719561               0.999999984               0.000423201              -0.000739786               0.999999984               0.000421293              -0.000758356               0.999999984               0.000415170              -0.000773816               0.999999984               0.000404085              -0.000784641               0.999999984               0.000387606              -0.000789959               0.999999984               0.000366055              -0.000790099               0.999999984               0.000340159              -0.000785657               0.999999984               0.000310968              -0.000777369               0.999999984               0.000279426              -0.000766217               0.999999984               0.000246282              -0.000753119               0.999999984               0.000212154              -0.000738864               0.999999984               0.000484832              -0.000939045               0.999999984               0.000386837              -0.000816189               0.999999984               0.000358684              -0.000783585               0.999999984               0.000353810              -0.000785549               0.999999984               0.000356409              -0.000802282               0.999999984               0.000358945              -0.000823878               0.999999984               0.000358253              -0.000845710               0.999999984               0.000352735              -0.000865307               0.999999984               0.000341185              -0.000881014               0.999999984               0.000322893              -0.000891516               0.999999984               0.000298029              -0.000896239               0.999999984               0.000267351              -0.000896093               0.999999984               0.000232193              -0.000892085               0.999999984               0.000193833              -0.000885281               0.999999984               0.000153249              -0.000876516               0.999999984               0.000111412              -0.000866735               0.999999984               0.000069133              -0.000856499               0.999999984               0.000435172              -0.001029198               0.999999984               0.000329703              -0.000923378               0.999999984               0.000298401              -0.000886321               0.999999984               0.000292104              -0.000882131               0.999999984               0.000294399              -0.000893867               0.999999984               0.000297653              -0.000912565               0.999999984               0.000298342              -0.000933426               0.999999984               0.000294925              -0.000953750               0.999999984               0.000286388              -0.000972076               0.999999984               0.000271898              -0.000987049               0.999999984               0.000251048              -0.000997957               0.999999984               0.000223863              -0.001004528               0.999999984               0.000191409              -0.001007605               0.999999984               0.000154801              -0.001007764               0.999999984               0.000114937              -0.001006039               0.999999984               0.000072908              -0.001002936               0.999999984               0.000029992              -0.000999234               0.999999984               0.000380937              -0.001111057               0.999999984               0.000275520              -0.001026840               0.999999984               0.000241209              -0.000991532               0.999999984               0.000232655              -0.000983739               0.999999984               0.000233730              -0.000991655               0.999999984               0.000236916              -0.001007817               0.999999984               0.000238533              -0.001027710               0.999999984               0.000236631              -0.001048619               0.999999984               0.000230524              -0.001068883               0.999999984               0.000219249              -0.001087340               0.999999984               0.000202156              -0.001103209               0.999999984               0.000178956              -0.001115803               0.999999984               0.000149794              -0.001125211               0.999999984               0.000115609              -0.001131904               0.999999984               0.000077133              -0.001136518               0.999999984               0.000035370              -0.001139761               0.999999984              -0.000008449              -0.001142300               0.999999984               0.000323219              -0.001182777               0.999999984               0.000224275              -0.001123453               0.999999984               0.000188655              -0.001094418               0.999999984               0.000177702              -0.001086524               0.999999984               0.000176804              -0.001092484               0.999999984               0.000179255              -0.001107056               0.999999984               0.000181144              -0.001126331               0.999999984               0.000180323              -0.001147876               0.999999984               0.000176051              -0.001169921               0.999999984               0.000167444              -0.001191452               0.999999984               0.000153777              -0.001211503               0.999999984               0.000134544              -0.001229387               0.999999984               0.000109374              -0.001244690               0.999999984               0.000078397              -0.001257553               0.999999984               0.000042008              -0.001268291               0.999999984               0.000000791              -0.001277467               0.999999984              -0.000044368              -0.001285826               0.999999984               0.000262417              -0.001243211               0.999999984               0.000175830              -0.001209433               0.999999984               0.000141531              -0.001189861               0.999999984               0.000129070              -0.001184862               0.999999984               0.000126288              -0.001191086               0.999999984               0.000127381              -0.001205353               0.999999984               0.000128942              -0.001224838               0.999999984               0.000128710              -0.001247406               0.999999984               0.000125716              -0.001271613               0.999999984               0.000119243              -0.001296204               0.999999984               0.000108746              -0.001320220               0.999999984               0.000093299              -0.001343009               0.999999984               0.000072444              -0.001363992               0.999999984               0.000045606              -0.001382969               0.999999984               0.000012337              -0.001399942               0.999999984              -0.000027353              -0.001415300               0.999999984              -0.000073452              -0.001429525               0.999999984               0.000199118              -0.001291280               0.999999984               0.000129837              -0.001280854               0.999999984               0.000100012              -0.001272152               0.999999984               0.000087724              -0.001271976               0.999999984               0.000083753              -0.001280332               0.999999984               0.000083563              -0.001295577               0.999999984               0.000084440              -0.001316038               0.999999984               0.000084382              -0.001340141               0.999999984               0.000082348              -0.001366605               0.999999984               0.000077676              -0.001394354               0.999999984               0.000069906              -0.001422411               0.999999984               0.000058428              -0.001450070               0.999999984               0.000042215              -0.001476697               0.999999984               0.000020391              -0.001501939               0.999999984              -0.000007830              -0.001525502               0.999999984              -0.000043514              -0.001547363               0.999999984              -0.000087705              -0.001567790               0.999999984               0.000133883              -0.001326292               0.999999984               0.000085659              -0.001334509               0.999999984               0.000063502              -0.001335792               0.999999984               0.000053545              -0.001340885               0.999999984               0.000049616              -0.001352060               0.999999984               0.000048801              -0.001369076               0.999999984               0.000049022              -0.001390907               0.999999984               0.000048990              -0.001416589               0.999999984               0.000047620              -0.001445210               0.999999984               0.000044587              -0.001475826               0.999999984               0.000039554              -0.001507524               0.999999984               0.000031913              -0.001539600               0.999999984               0.000020817              -0.001571644               0.999999984               0.000005294              -0.001602947               0.999999984              -0.000015540              -0.001633001               0.999999984              -0.000043111              -0.001661485               0.999999984              -0.000079421              -0.001688178               0.999999984               0.000067293              -0.001347504               0.999999984               0.000042601              -0.001367844               0.999999984               0.000030736              -0.001376210               0.999999984               0.000025154              -0.001385368               0.999999984               0.000022722              -0.001398824               0.999999984               0.000022025              -0.001417259               0.999999984               0.000022046              -0.001440288               0.999999984               0.000021924              -0.001467259               0.999999984               0.000021220              -0.001497462               0.999999984               0.000019791              -0.001530098               0.999999984               0.000017317              -0.001564459               0.999999984               0.000013456              -0.001599847               0.999999984               0.000007827              -0.001635830               0.999999984              -0.000000231              -0.001671817               0.999999984              -0.000011435              -0.001707116               0.999999984              -0.000026595              -0.001741043               0.999999984              -0.000047449              -0.001772922               0.999999984              -0.000000000              -0.001354527               0.999999984               0.000000000              -0.001379081               0.999999984              -0.000000000              -0.001390036               0.999999984              -0.000000000              -0.001400733               0.999999984               0.000000000              -0.001415123               0.999999984              -0.000000000              -0.001434140               0.999999984               0.000000000              -0.001457631               0.999999984              -0.000000000              -0.001485040               0.999999984              -0.000000000              -0.001515765               0.999999984               0.000000000              -0.001549111               0.999999984              -0.000000000              -0.001584507               0.999999984              -0.000000000              -0.001621214               0.999999984              -0.000000000              -0.001658816               0.999999984               0.000000000              -0.001696724               0.999999984               0.000000000              -0.001734128               0.999999984              -0.000000000              -0.001770251               0.999999984               0.000000000              -0.001804175               0.999999984               0.000710552              -0.000000000               0.999999984               0.000761015               0.000000000               0.999999984               0.000782734               0.000000000               0.999999984               0.000794566               0.000000000               0.999999984               0.000803751              -0.000000000               0.999999984               0.000812892               0.000000000               0.999999984               0.000822919               0.000000000               0.999999984               0.000834203              -0.000000000               0.999999984               0.000846688               0.000000000               0.999999984               0.000860192               0.000000000               0.999999984               0.000874343              -0.000000000               0.999999984               0.000888795               0.000000000               0.999999984               0.000903194               0.000000000               0.999999984               0.000917409              -0.000000000               0.999999984               0.000931230               0.000000000               0.999999984               0.000944170              -0.000000000               0.999999984               0.000955570               0.000000000               0.999999984               0.000706693               0.000130504               0.999999984               0.000753421               0.000106523               0.999999984               0.000772751               0.000095944               0.999999984               0.000783206               0.000092459               0.999999984               0.000791537               0.000092521               0.999999984               0.000800111               0.000094401               0.999999984               0.000809698               0.000097251               0.999999984               0.000820454               0.000100392               0.999999984               0.000832286               0.000103465               0.999999984               0.000845012               0.000106052               0.999999984               0.000858249               0.000107819               0.999999984               0.000871709               0.000108481               0.999999984               0.000885123               0.000107848               0.999999984               0.000898152               0.000105767               0.999999984               0.000910464               0.000101496               0.999999984               0.000921575               0.000094220               0.999999984               0.000930883               0.000082750               0.999999984               0.000695094               0.000259779               0.999999984               0.000730903               0.000212327               0.999999984               0.000743590               0.000192266               0.999999984               0.000750063               0.000186133               0.999999984               0.000755937               0.000186877               0.999999984               0.000762885               0.000191105               0.999999984               0.000771037               0.000196906               0.999999984               0.000780348               0.000203170               0.999999984               0.000790542               0.000209131               0.999999984               0.000801296               0.000214156               0.999999984               0.000812239               0.000217673               0.999999984               0.000822950               0.000219098               0.999999984               0.000833121               0.000217953               0.999999984               0.000842312               0.000213619               0.999999984               0.000850021               0.000205142               0.999999984               0.000855914               0.000191556               0.999999984               0.000859773               0.000171116               0.999999984               0.000675985               0.000386436               0.999999984               0.000694495               0.000316840               0.999999984               0.000697622               0.000289251               0.999999984               0.000698808               0.000281896               0.999999984               0.000701585               0.000284391               0.999999984               0.000706457               0.000291470               0.999999984               0.000712903               0.000300443               0.999999984               0.000720427               0.000309776               0.999999984               0.000728442               0.000318363               0.999999984               0.000736318               0.000325604               0.999999984               0.000743617               0.000330640               0.999999984               0.000749944               0.000332708               0.999999984               0.000754802               0.000330962               0.999999984               0.000757786               0.000324636               0.999999984               0.000758630               0.000313052               0.999999984               0.000757164               0.000295333               0.999999984               0.000753646               0.000270491               0.999999984               0.000649719               0.000509189               0.999999984               0.000646069               0.000419783               0.999999984               0.000638474               0.000387238               0.999999984               0.000634479               0.000380360               0.999999984               0.000634662               0.000385582               0.999999984               0.000637889               0.000395883               0.999999984               0.000642808               0.000408127               0.999999984               0.000648381               0.000420337               0.999999984               0.000653698               0.000431369               0.999999984               0.000657972               0.000440389               0.999999984               0.000660695               0.000446516               0.999999984               0.000661293               0.000448828               0.999999984               0.000659344               0.000446413               0.999999984               0.000654628               0.000438620               0.999999984               0.000647236               0.000425310               0.999999984               0.000637545               0.000406381               0.999999984               0.000626264               0.000381807               0.999999984               0.000616614               0.000627040               0.999999984               0.000588045               0.000521277               0.999999984               0.000570535               0.000486354               0.999999984               0.000562873               0.000481305               0.999999984               0.000561798               0.000489717               0.999999984               0.000564241               0.000503458               0.999999984               0.000567949               0.000518828               0.999999984               0.000571405               0.000533682               0.999999984               0.000573564               0.000546642               0.999999984               0.000573626               0.000556927               0.999999984               0.000570819               0.000563445               0.999999984               0.000564620               0.000565334               0.999999984               0.000554955               0.000562010               0.999999984               0.000542040               0.000553391               0.999999984               0.000526445               0.000539869               0.999999984               0.000508924               0.000521900               0.999999984               0.000490319               0.000500614               0.999999984               0.000577384               0.000738881               0.999999984               0.000523476               0.000621359               0.999999984               0.000498551               0.000586110               0.999999984               0.000489586               0.000583618               0.999999984               0.000488805               0.000595230               0.999999984               0.000491143               0.000612122               0.999999984               0.000493634               0.000630180               0.999999984               0.000494615               0.000647243               0.999999984               0.000493035               0.000661729               0.999999984               0.000488000               0.000672619               0.999999984               0.000478778               0.000678693               0.999999984               0.000465195               0.000679659               0.999999984               0.000447629               0.000675508               0.999999984               0.000426730               0.000666651               0.999999984               0.000403381               0.000653868               0.999999984               0.000378395               0.000638111               0.999999984               0.000352436               0.000620469               0.999999984               0.000532995               0.000843454               0.999999984               0.000455632               0.000719683               0.999999984               0.000426724               0.000685618               0.999999984               0.000418993               0.000685622               0.999999984               0.000419616               0.000700077               0.999999984               0.000422107               0.000719561               0.999999984               0.000423201               0.000739786               0.999999984               0.000421293               0.000758356               0.999999984               0.000415170               0.000773816               0.999999984               0.000404085               0.000784641               0.999999984               0.000387606               0.000789959               0.999999984               0.000366055               0.000790099               0.999999984               0.000340159               0.000785657               0.999999984               0.000310968               0.000777369               0.999999984               0.000279426               0.000766217               0.999999984               0.000246282               0.000753119               0.999999984               0.000212154               0.000738864               0.999999984               0.000484832               0.000939045               0.999999984               0.000386837               0.000816189               0.999999984               0.000358684               0.000783585               0.999999984               0.000353810               0.000785549               0.999999984               0.000356409               0.000802282               0.999999984               0.000358945               0.000823878               0.999999984               0.000358253               0.000845710               0.999999984               0.000352735               0.000865307               0.999999984               0.000341185               0.000881014               0.999999984               0.000322893               0.000891516               0.999999984               0.000298029               0.000896239               0.999999984               0.000267351               0.000896093               0.999999984               0.000232193               0.000892085               0.999999984               0.000193833               0.000885281               0.999999984               0.000153249               0.000876516               0.999999984               0.000111412               0.000866735               0.999999984               0.000069133               0.000856499               0.999999984               0.000435172               0.001029198               0.999999984               0.000329703               0.000923378               0.999999984               0.000298401               0.000886321               0.999999984               0.000292104               0.000882131               0.999999984               0.000294399               0.000893867               0.999999984               0.000297653               0.000912565               0.999999984               0.000298342               0.000933426               0.999999984               0.000294925               0.000953750               0.999999984               0.000286388               0.000972076               0.999999984               0.000271898               0.000987049               0.999999984               0.000251048               0.000997957               0.999999984               0.000223863               0.001004528               0.999999984               0.000191409               0.001007605               0.999999984               0.000154801               0.001007764               0.999999984               0.000114937               0.001006039               0.999999984               0.000072908               0.001002936               0.999999984               0.000029992               0.000999234               0.999999984               0.000380937               0.001111057               0.999999984               0.000275520               0.001026840               0.999999984               0.000241209               0.000991532               0.999999984               0.000232655               0.000983739               0.999999984               0.000233730               0.000991655               0.999999984               0.000236916               0.001007817               0.999999984               0.000238533               0.001027710               0.999999984               0.000236631               0.001048619               0.999999984               0.000230524               0.001068883               0.999999984               0.000219249               0.001087340               0.999999984               0.000202156               0.001103209               0.999999984               0.000178956               0.001115803               0.999999984               0.000149794               0.001125211               0.999999984               0.000115609               0.001131904               0.999999984               0.000077133               0.001136518               0.999999984               0.000035370               0.001139761               0.999999984              -0.000008449               0.001142300               0.999999984               0.000323219               0.001182777               0.999999984               0.000224275               0.001123453               0.999999984               0.000188655               0.001094418               0.999999984               0.000177702               0.001086524               0.999999984               0.000176804               0.001092484               0.999999984               0.000179255               0.001107056               0.999999984               0.000181144               0.001126331               0.999999984               0.000180323               0.001147876               0.999999984               0.000176051               0.001169921               0.999999984               0.000167444               0.001191452               0.999999984               0.000153777               0.001211503               0.999999984               0.000134544               0.001229387               0.999999984               0.000109374               0.001244690               0.999999984               0.000078397               0.001257553               0.999999984               0.000042008               0.001268291               0.999999984               0.000000791               0.001277467               0.999999984              -0.000044368               0.001285826               0.999999984               0.000262417               0.001243211               0.999999984               0.000175830               0.001209433               0.999999984               0.000141531               0.001189861               0.999999984               0.000129070               0.001184862               0.999999984               0.000126288               0.001191086               0.999999984               0.000127381               0.001205353               0.999999984               0.000128942               0.001224838               0.999999984               0.000128710               0.001247406               0.999999984               0.000125716               0.001271613               0.999999984               0.000119243               0.001296204               0.999999984               0.000108746               0.001320220               0.999999984               0.000093299               0.001343009               0.999999984               0.000072444               0.001363992               0.999999984               0.000045606               0.001382969               0.999999984               0.000012337               0.001399942               0.999999984              -0.000027353               0.001415300               0.999999984              -0.000073452               0.001429525               0.999999984               0.000199118               0.001291280               0.999999984               0.000129837               0.001280854               0.999999984               0.000100012               0.001272152               0.999999984               0.000087724               0.001271976               0.999999984               0.000083753               0.001280332               0.999999984               0.000083563               0.001295577               0.999999984               0.000084440               0.001316038               0.999999984               0.000084382               0.001340141               0.999999984               0.000082348               0.001366605               0.999999984               0.000077676               0.001394354               0.999999984               0.000069906               0.001422411               0.999999984               0.000058428               0.001450070               0.999999984               0.000042215               0.001476697               0.999999984               0.000020391               0.001501939               0.999999984              -0.000007830               0.001525502               0.999999984              -0.000043514               0.001547363               0.999999984              -0.000087705               0.001567790               0.999999984               0.000133883               0.001326292               0.999999984               0.000085659               0.001334509               0.999999984               0.000063502               0.001335792               0.999999984               0.000053545               0.001340885               0.999999984               0.000049616               0.001352060               0.999999984               0.000048801               0.001369076               0.999999984               0.000049022               0.001390907               0.999999984               0.000048990               0.001416589               0.999999984               0.000047620               0.001445210               0.999999984               0.000044587               0.001475826               0.999999984               0.000039554               0.001507524               0.999999984               0.000031913               0.001539600               0.999999984               0.000020817               0.001571644               0.999999984               0.000005294               0.001602947               0.999999984              -0.000015540               0.001633001               0.999999984              -0.000043111               0.001661485               0.999999984              -0.000079421               0.001688178               0.999999984               0.000067293               0.001347504               0.999999984               0.000042601               0.001367844               0.999999984               0.000030736               0.001376210               0.999999984               0.000025154               0.001385368               0.999999984               0.000022722               0.001398824               0.999999984               0.000022025               0.001417259               0.999999984               0.000022046               0.001440288               0.999999984               0.000021924               0.001467259               0.999999984               0.000021220               0.001497462               0.999999984               0.000019791               0.001530098               0.999999984               0.000017317               0.001564459               0.999999984               0.000013456               0.001599847               0.999999984               0.000007827               0.001635830               0.999999984              -0.000000231               0.001671817               0.999999984              -0.000011435               0.001707116               0.999999984              -0.000026595               0.001741043               0.999999984              -0.000047449               0.001772922               0.999999984               0.000000000               0.001354527               0.999999984              -0.000000000               0.001379081               0.999999984              -0.000000000               0.001390036               0.999999984              -0.000000000               0.001400733               0.999999984               0.000000000               0.001415123               0.999999984               0.000000000               0.001434140               0.999999984              -0.000000000               0.001457631               0.999999984               0.000000000               0.001485040               0.999999984              -0.000000000               0.001515765               0.999999984              -0.000000000               0.001549111               0.999999984               0.000000000               0.001584507               0.999999984              -0.000000000               0.001621214               0.999999984              -0.000000000               0.001658816               0.999999984              -0.000000000               0.001696724               0.999999984              -0.000000000               0.001734128               0.999999984              -0.000000000               0.001770251               0.999999984               0.000000000               0.001804175               0.999999984 </DataArray>
<DataArray type="Float64"                                    Name="stress"                                                      NumberOfComponents="10" format="ascii">
              0.002206894               0.023872614               0.000000000              -0.002156486               0.008676287               0.006519801               0.000000000               0.000000000               0.000000000               0.000000000               0.002202779               0.018661830               0.000000000              -0.001506683               0.006722775               0.005216092               0.000000000               0.000000000               0.000000000               0.000000000               0.002900792               0.014417707               0.000000000              -0.000714415               0.005043993               0.004329578               0.000000000               0.000000000               0.000000000               0.000000000               0.002781578               0.012035803              -0.000000000              -0.000461383               0.004165689               0.003704306               0.000000000               0.000000000               0.000000000               0.000000000               0.002420946               0.010543956              -0.000000000              -0.000410139               0.003651330               0.003241191               0.000000000               0.000000000               0.000000000               0.000000000               0.002024525               0.009520140              -0.000000000              -0.000430820               0.003316955               0.002886135               0.000000000               0.000000000               0.000000000               0.000000000               0.001649427               0.008761479              -0.000000000              -0.000476648               0.003079346               0.002602698               0.000000000               0.000000000               0.000000000               0.000000000               0.001311200               0.008154175              -0.000000000              -0.000527571               0.002893888               0.002366317               0.000000000               0.000000000               0.000000000               0.000000000               0.001016742               0.007636705              -0.000000000              -0.000573309               0.002736646               0.002163337               0.000000000               0.000000000               0.000000000               0.000000000               0.000770455               0.007167804               0.000000000              -0.000607054               0.002591595               0.001984542               0.000000000               0.000000000               0.000000000               0.000000000               0.000571282               0.006719739               0.000000000              -0.000625735               0.002448469               0.001822734               0.000000000               0.000000000               0.000000000               0.000000000               0.000410006               0.006272723               0.000000000              -0.000630337               0.002300999               0.001670662               0.000000000               0.000000000               0.000000000               0.000000000               0.000275147               0.005814480              -0.000000000              -0.000623628               0.002146017               0.001522388               0.000000000               0.000000000               0.000000000               0.000000000               0.000158300               0.005332793              -0.000000000              -0.000607235               0.001979992               0.001372756               0.000000000               0.000000000               0.000000000               0.000000000               0.000068313               0.004804413               0.000000000              -0.000574933               0.001793099               0.001218167               0.000000000               0.000000000               0.000000000               0.000000000               0.000019249               0.004203961              -0.000000000              -0.000518276               0.001574065               0.001055789               0.000000000               0.000000000               0.000000000               0.000000000              -0.000043230               0.003741212              -0.000000000              -0.000483861               0.001408345               0.000924484               0.000000000               0.000000000               0.000000000               0.000000000               0.002285044               0.023381983              -0.001630500              -0.002065852               0.008482534               0.006416682               0.000000000               0.000000000               0.000000000               0.000000000               0.002157816               0.018336175              -0.000816907              -0.001482837               0.006606276               0.005123439               0.000000000               0.000000000               0.000000000               0.000000000               0.002720510               0.014268373              -0.000002820              -0.000763353               0.005010528               0.004247174               0.000000000               0.000000000               0.000000000               0.000000000               0.002544431               0.011974660               0.000339715              -0.000542670               0.004172403               0.003629734               0.000000000               0.000000000               0.000000000               0.000000000               0.002169985               0.010528555               0.000472653              -0.000502324               0.003676925               0.003174601               0.000000000               0.000000000               0.000000000               0.000000000               0.001781228               0.009529175               0.000515613              -0.000523185               0.003350755               0.002827570               0.000000000               0.000000000               0.000000000               0.000000000               0.001425198               0.008778343               0.000519204              -0.000562842               0.003113699               0.002550857               0.000000000               0.000000000               0.000000000               0.000000000               0.001111056               0.008171800               0.000505397              -0.000604828               0.002925515               0.002320688               0.000000000               0.000000000               0.000000000               0.000000000               0.000839482               0.007650437               0.000483103              -0.000641497               0.002763952               0.002122455               0.000000000               0.000000000               0.000000000               0.000000000               0.000614274               0.007178807               0.000454247              -0.000666997               0.002615244               0.001948247               0.000000000               0.000000000               0.000000000               0.000000000               0.000434046               0.006731846               0.000420266              -0.000678712               0.002470164               0.001791452               0.000000000               0.000000000               0.000000000               0.000000000               0.000286903               0.006287966               0.000383178              -0.000678405               0.002322103               0.001643698               0.000000000               0.000000000               0.000000000               0.000000000               0.000168952               0.005833752               0.000344344              -0.000665860               0.002166518               0.001500657               0.000000000               0.000000000               0.000000000               0.000000000               0.000078272               0.005355737               0.000295733              -0.000640113               0.001998599               0.001358485               0.000000000               0.000000000               0.000000000               0.000000000               0.000017953               0.004839204               0.000228003              -0.000598167               0.001812441               0.001214274               0.000000000               0.000000000               0.000000000               0.000000000              -0.000003541               0.004270348               0.000129912              -0.000535120               0.001601809               0.001066688               0.000000000               0.000000000               0.000000000               0.000000000              -0.000050313               0.003842017               0.000081865              -0.000499118               0.001447032               0.000947914               0.000000000               0.000000000               0.000000000               0.000000000               0.002471811               0.021962774              -0.003028763              -0.001818415               0.007926989               0.006108575               0.000000000               0.000000000               0.000000000               0.000000000               0.002003584               0.017404437              -0.001513057              -0.001424208               0.006276157               0.004851949               0.000000000               0.000000000               0.000000000               0.000000000               0.002202668               0.013843839              -0.000013529              -0.000904477               0.004916059               0.004011582               0.000000000               0.000000000               0.000000000               0.000000000               0.001890787               0.011800021               0.000599721              -0.000765956               0.004188620               0.003422664               0.000000000               0.000000000               0.000000000               0.000000000               0.001488794               0.010480305               0.000832233              -0.000751739               0.003743980               0.002992241               0.000000000               0.000000000               0.000000000               0.000000000               0.001127809               0.009541167               0.000902138              -0.000769716               0.003436929               0.002667213               0.000000000               0.000000000               0.000000000               0.000000000               0.000825639               0.008812664               0.000902205              -0.000791967               0.003201514               0.002409547               0.000000000               0.000000000               0.000000000               0.000000000               0.000572355               0.008208210               0.000871727              -0.000811391               0.003006506               0.002195115               0.000000000               0.000000000               0.000000000               0.000000000               0.000365222               0.007679765               0.000828322              -0.000823011               0.002834233               0.002011222               0.000000000               0.000000000               0.000000000               0.000000000               0.000201410               0.007203213               0.000777528              -0.000824871               0.002676004               0.001851133               0.000000000               0.000000000               0.000000000               0.000000000               0.000078672               0.006756881               0.000718816              -0.000815106               0.002523973               0.001708867               0.000000000               0.000000000               0.000000000               0.000000000              -0.000010599               0.006321243               0.000653291              -0.000794128               0.002371769               0.001577641               0.000000000               0.000000000               0.000000000               0.000000000              -0.000069511               0.005879517               0.000581139              -0.000761004               0.002213487               0.001452483               0.000000000               0.000000000               0.000000000               0.000000000              -0.000093248               0.005423824               0.000492845              -0.000712944               0.002045571               0.001332627               0.000000000               0.000000000               0.000000000               0.000000000              -0.000083522               0.004956750               0.000377322              -0.000650913               0.001869205               0.001218292               0.000000000               0.000000000               0.000000000               0.000000000              -0.000049851               0.004479436               0.000214937              -0.000578622               0.001686005               0.001107382               0.000000000               0.000000000               0.000000000               0.000000000              -0.000065034               0.004145135               0.000133526              -0.000542528               0.001562541               0.001020012               0.000000000               0.000000000               0.000000000               0.000000000               0.002657448               0.019794418              -0.004019923              -0.001477758               0.007090659               0.005612901               0.000000000               0.000000000               0.000000000               0.000000000               0.001710273               0.016007200              -0.002011809              -0.001359545               0.005788862               0.004429316               0.000000000               0.000000000               0.000000000               0.000000000               0.001403967               0.013217485              -0.000055705              -0.001125695               0.004781016               0.003655321               0.000000000               0.000000000               0.000000000               0.000000000               0.000941543               0.011538568               0.000705754              -0.001089240               0.004209231               0.003119991               0.000000000               0.000000000               0.000000000               0.000000000               0.000539210               0.010393267               0.000978337              -0.001096952               0.003830038               0.002733086               0.000000000               0.000000000               0.000000000               0.000000000               0.000237238               0.009528060               0.001049795              -0.001102041               0.003543335               0.002441294               0.000000000               0.000000000               0.000000000               0.000000000               0.000020998               0.008829813               0.001039856              -0.001095850               0.003308525               0.002212675               0.000000000               0.000000000               0.000000000               0.000000000              -0.000136148               0.008232446               0.000996979              -0.001080109               0.003104157               0.002024049               0.000000000               0.000000000               0.000000000               0.000000000              -0.000239098               0.007705440               0.000944519              -0.001052839               0.002919401               0.001866561               0.000000000               0.000000000               0.000000000               0.000000000              -0.000300471               0.007227326               0.000887059              -0.001016090               0.002747781               0.001731691               0.000000000               0.000000000               0.000000000               0.000000000              -0.000331084               0.006779555               0.000819642              -0.000971599               0.002583695               0.001612096               0.000000000               0.000000000               0.000000000               0.000000000              -0.000329972               0.006350179               0.000740496              -0.000917510               0.002422542               0.001505032               0.000000000               0.000000000               0.000000000               0.000000000              -0.000298969               0.005929179               0.000648001              -0.000853259               0.002260793               0.001407534               0.000000000               0.000000000               0.000000000               0.000000000              -0.000243542               0.005517409               0.000539466              -0.000781002               0.002099452               0.001318450               0.000000000               0.000000000               0.000000000               0.000000000              -0.000166011               0.005131018               0.000404048              -0.000703630               0.001944865               0.001241236               0.000000000               0.000000000               0.000000000               0.000000000              -0.000082086               0.004785299               0.000224473              -0.000628943               0.001804732               0.001175788               0.000000000               0.000000000               0.000000000               0.000000000              -0.000064786               0.004574121               0.000134104              -0.000596058               0.001723378               0.001127320               0.000000000               0.000000000               0.000000000               0.000000000               0.002698892               0.017159085              -0.004517195              -0.001132802               0.006097237               0.004964436               0.000000000               0.000000000               0.000000000               0.000000000               0.001257923               0.014350083              -0.002292219              -0.001322037               0.005223992               0.003901955               0.000000000               0.000000000               0.000000000               0.000000000               0.000425963               0.012484471              -0.000159693              -0.001400819               0.004628388               0.003227569               0.000000000               0.000000000               0.000000000               0.000000000              -0.000140526               0.011208448               0.000620525              -0.001453750               0.004220695               0.002766945               0.000000000               0.000000000               0.000000000               0.000000000              -0.000489845               0.010240529               0.000881419              -0.001463754               0.003901394               0.002437639               0.000000000               0.000000000               0.000000000               0.000000000              -0.000682771               0.009456342               0.000940435              -0.001438078               0.003631442               0.002193364               0.000000000               0.000000000               0.000000000               0.000000000              -0.000775037               0.008793978               0.000927119              -0.001389883               0.003394591               0.002004708               0.000000000               0.000000000               0.000000000               0.000000000              -0.000806346               0.008211342               0.000887887              -0.001328794               0.003180018               0.001851224               0.000000000               0.000000000               0.000000000               0.000000000              -0.000788120               0.007688543               0.000843116              -0.001256610               0.002981692               0.001725082               0.000000000               0.000000000               0.000000000               0.000000000              -0.000734068               0.007208525               0.000792697              -0.001176338               0.002794931               0.001618592               0.000000000               0.000000000               0.000000000               0.000000000              -0.000654187               0.006757455               0.000731643              -0.001089999               0.002615796               0.001525796               0.000000000               0.000000000               0.000000000               0.000000000              -0.000550928               0.006331142               0.000656164              -0.000997989               0.002443022               0.001445034               0.000000000               0.000000000               0.000000000               0.000000000              -0.000430423               0.005933985               0.000562786              -0.000903155               0.002279027               0.001375872               0.000000000               0.000000000               0.000000000               0.000000000              -0.000303620               0.005577446               0.000454355              -0.000811036               0.002129476               0.001318439               0.000000000               0.000000000               0.000000000               0.000000000              -0.000182873               0.005277003               0.000327511              -0.000728201               0.002001717               0.001273516               0.000000000               0.000000000               0.000000000               0.000000000              -0.000083283               0.005050927               0.000173957              -0.000662595               0.001904491               0.001241895               0.000000000               0.000000000               0.000000000               0.000000000              -0.000050802               0.004942222               0.000096362              -0.000636827               0.001859667               0.001222840               0.000000000               0.000000000               0.000000000               0.000000000               0.002470370               0.014332944              -0.004536211              -0.000865231               0.005066010               0.004200778               0.000000000               0.000000000               0.000000000               0.000000000               0.000645801               0.012612829              -0.002389341              -0.001334426               0.004649042               0.003314616               0.000000000               0.000000000               0.000000000               0.000000000              -0.000614544               0.011695814              -0.000357270              -0.001692427               0.004462708               0.002770281               0.000000000               0.000000000               0.000000000               0.000000000              -0.001189415               0.010795420               0.000342723              -0.001795454               0.004196922               0.002401468               0.000000000               0.000000000               0.000000000               0.000000000              -0.001418846               0.009986951               0.000572610              -0.001780432               0.003922428               0.002141996               0.000000000               0.000000000               0.000000000               0.000000000              -0.001460218               0.009279021               0.000630631              -0.001707455               0.003662128               0.001954672               0.000000000               0.000000000               0.000000000               0.000000000              -0.001406360               0.008653075               0.000633703              -0.001609015               0.003420668               0.001811653               0.000000000               0.000000000               0.000000000               0.000000000              -0.001304164               0.008090854               0.000615738              -0.001500414               0.003197062               0.001696648               0.000000000               0.000000000               0.000000000               0.000000000              -0.001169766               0.007575571               0.000592121              -0.001385605               0.002987033               0.001601428               0.000000000               0.000000000               0.000000000               0.000000000              -0.001006082               0.007095182               0.000561198              -0.001264175               0.002786429               0.001522253               0.000000000               0.000000000               0.000000000               0.000000000              -0.000821643               0.006640276               0.000518215              -0.001138148               0.002592786               0.001454638               0.000000000               0.000000000               0.000000000               0.000000000              -0.000631396               0.006220562               0.000459811              -0.001014341               0.002411614               0.001397273               0.000000000               0.000000000               0.000000000               0.000000000              -0.000448028               0.005852054               0.000383729              -0.000899515               0.002250503               0.001350988               0.000000000               0.000000000               0.000000000               0.000000000              -0.000283764               0.005548854               0.000295079              -0.000800016               0.002116272               0.001316255               0.000000000               0.000000000               0.000000000               0.000000000              -0.000152400               0.005318046               0.000195925              -0.000721904               0.002013299               0.001291395               0.000000000               0.000000000               0.000000000               0.000000000              -0.000062005               0.005167150               0.000093809              -0.000669144               0.001945414               0.001276270               0.000000000               0.000000000               0.000000000               0.000000000              -0.000032850               0.005106678               0.000047567              -0.000650652               0.001919093               0.001268441               0.000000000               0.000000000               0.000000000               0.000000000               0.001914569               0.011532387              -0.004162110              -0.000723587               0.004085285               0.003361698               0.000000000               0.000000000               0.000000000               0.000000000              -0.000092606               0.010911127              -0.002361828              -0.001398616               0.004103211               0.002704595               0.000000000               0.000000000               0.000000000               0.000000000              -0.001603619               0.010870099              -0.000656765              -0.001960115               0.004276701               0.002316587               0.000000000               0.000000000               0.000000000               0.000000000              -0.002073328               0.010287540              -0.000080402              -0.002063435               0.004116957               0.002053522               0.000000000               0.000000000               0.000000000               0.000000000              -0.002126033               0.009618094               0.000131220              -0.001999519               0.003872506               0.001872987               0.000000000               0.000000000               0.000000000               0.000000000              -0.001997422               0.008976332               0.000214196              -0.001871070               0.003615771               0.001744701               0.000000000               0.000000000               0.000000000               0.000000000              -0.001800049               0.008385377               0.000255193              -0.001723186               0.003369493               0.001646307               0.000000000               0.000000000               0.000000000               0.000000000              -0.001578348               0.007842298               0.000275825              -0.001572164               0.003138128               0.001565964               0.000000000               0.000000000               0.000000000               0.000000000              -0.001341952               0.007340622               0.000283419              -0.001420806               0.002920452               0.001499645               0.000000000               0.000000000               0.000000000               0.000000000              -0.001090258               0.006864479               0.000277348              -0.001266904               0.002710438               0.001443534               0.000000000               0.000000000               0.000000000               0.000000000              -0.000833036               0.006419435               0.000258236              -0.001114815               0.002511395               0.001396580               0.000000000               0.000000000               0.000000000               0.000000000              -0.000592103               0.006026642               0.000227074              -0.000975366               0.002333983               0.001358616               0.000000000               0.000000000               0.000000000               0.000000000              -0.000384430               0.005701667               0.000181232              -0.000856868               0.002186159               0.001329292               0.000000000               0.000000000               0.000000000               0.000000000              -0.000220654               0.005449590               0.000126952              -0.000763942               0.002071159               0.001307217               0.000000000               0.000000000               0.000000000               0.000000000              -0.000105828               0.005268569               0.000072373              -0.000698255               0.001988924               0.001290669               0.000000000               0.000000000               0.000000000               0.000000000              -0.000037224               0.005152705               0.000027514              -0.000658045               0.001936899               0.001278854               0.000000000               0.000000000               0.000000000               0.000000000              -0.000023278               0.005098491               0.000014346              -0.000646039               0.001914826               0.001268788               0.000000000               0.000000000               0.000000000               0.000000000               0.001053593               0.008934713              -0.003497371              -0.000721743               0.003218788               0.002497044               0.000000000               0.000000000               0.000000000               0.000000000              -0.000916199               0.009342378              -0.002256612              -0.001511370               0.003617884               0.002106515               0.000000000               0.000000000               0.000000000               0.000000000              -0.002447729               0.010022596              -0.001039543              -0.002170718               0.004064405               0.001893687               0.000000000               0.000000000               0.000000000               0.000000000              -0.002717675               0.009691350              -0.000574503              -0.002230542               0.003973932               0.001743390               0.000000000               0.000000000               0.000000000               0.000000000              -0.002568866               0.009146168              -0.000349791              -0.002106591               0.003750889               0.001644298               0.000000000               0.000000000               0.000000000               0.000000000              -0.002278871               0.008571874              -0.000220896              -0.001926056               0.003499281               0.001573225               0.000000000               0.000000000               0.000000000               0.000000000              -0.001958616               0.008018985              -0.000131102              -0.001736850               0.003251918               0.001515068               0.000000000               0.000000000               0.000000000               0.000000000              -0.001635753               0.007498966              -0.000062992              -0.001550774               0.003016555               0.001465781               0.000000000               0.000000000               0.000000000               0.000000000              -0.001314537               0.007012200              -0.000015494              -0.001369473               0.002793868               0.001424394               0.000000000               0.000000000               0.000000000               0.000000000              -0.001002597               0.006554898               0.000009054              -0.001195333               0.002583388               0.001388055               0.000000000               0.000000000               0.000000000               0.000000000              -0.000711266               0.006144642               0.000021413              -0.001034803               0.002393128               0.001358325               0.000000000               0.000000000               0.000000000               0.000000000              -0.000463215               0.005799406               0.000027855              -0.000898629               0.002232659               0.001334030               0.000000000               0.000000000               0.000000000               0.000000000              -0.000272064               0.005526667               0.000023666              -0.000792855               0.002106489               0.001313634               0.000000000               0.000000000               0.000000000               0.000000000              -0.000138486               0.005325547               0.000012766              -0.000717624               0.002014373               0.001296749               0.000000000               0.000000000               0.000000000               0.000000000              -0.000055943               0.005185869               0.000004047              -0.000669211               0.001951676               0.001282465               0.000000000               0.000000000               0.000000000               0.000000000              -0.000015846               0.005094901               0.000001190              -0.000642803               0.001912551               0.001269748               0.000000000               0.000000000               0.000000000               0.000000000              -0.000014727               0.005049370               0.000006338              -0.000636692               0.001895337               0.001258645               0.000000000               0.000000000               0.000000000               0.000000000               0.000005546               0.006735679              -0.002665732              -0.000839880               0.002525163               0.001685283               0.000000000               0.000000000               0.000000000               0.000000000              -0.001719946               0.007946040              -0.002124832              -0.001638232               0.003194730               0.001556499               0.000000000               0.000000000               0.000000000               0.000000000              -0.003093463               0.009195704              -0.001486171              -0.002309506               0.003835039               0.001525533               0.000000000               0.000000000               0.000000000               0.000000000              -0.003145362               0.009127203              -0.001094827              -0.002320405               0.003815839               0.001495433               0.000000000               0.000000000               0.000000000               0.000000000              -0.002831812               0.008727209              -0.000834704              -0.002152825               0.003626649               0.001473824               0.000000000               0.000000000               0.000000000               0.000000000              -0.002416666               0.008238295              -0.000650435              -0.001936032               0.003391415               0.001455383               0.000000000               0.000000000               0.000000000               0.000000000              -0.002001981               0.007740649              -0.000509177              -0.001718320               0.003152964               0.001434644               0.000000000               0.000000000               0.000000000               0.000000000              -0.001603627               0.007259265              -0.000394246              -0.001508765               0.002922652               0.001413888               0.000000000               0.000000000               0.000000000               0.000000000              -0.001219412               0.006798377              -0.000301869              -0.001307073               0.002701794               0.001394721               0.000000000               0.000000000               0.000000000               0.000000000              -0.000865724               0.006363115              -0.000233117              -0.001120033               0.002494362               0.001374329               0.000000000               0.000000000               0.000000000               0.000000000              -0.000559147               0.005983198              -0.000177700              -0.000957577               0.002313572               0.001355994               0.000000000               0.000000000               0.000000000               0.000000000              -0.000322000               0.005671526              -0.000126739              -0.000829688               0.002167053               0.001337364               0.000000000               0.000000000               0.000000000               0.000000000              -0.000157482               0.005429535              -0.000086290              -0.000737746               0.002055742               0.001317996               0.000000000               0.000000000               0.000000000               0.000000000              -0.000055532               0.005251292              -0.000053059              -0.000677234               0.001976158               0.001298924               0.000000000               0.000000000               0.000000000               0.000000000              -0.000005491               0.005130727              -0.000024412              -0.000643398               0.001924691               0.001281293               0.000000000               0.000000000               0.000000000               0.000000000               0.000004433               0.005054562              -0.000003018              -0.000630156               0.001894889               0.001264733               0.000000000               0.000000000               0.000000000               0.000000000              -0.000001044               0.005023450               0.000006375              -0.000628321               0.001883907               0.001255586               0.000000000               0.000000000               0.000000000               0.000000000              -0.001222172               0.004696113              -0.001779740              -0.001045327               0.001913797               0.000868470               0.000000000               0.000000000               0.000000000               0.000000000              -0.002380837               0.006350190              -0.001971181              -0.001686584               0.002678903               0.000992319               0.000000000               0.000000000               0.000000000               0.000000000              -0.003452296               0.008005336              -0.001953083              -0.002295273               0.003433509               0.001138236               0.000000000               0.000000000               0.000000000               0.000000000              -0.003388411               0.008309585              -0.001652721              -0.002309347               0.003539616               0.001230269               0.000000000               0.000000000               0.000000000               0.000000000              -0.003019639               0.008165886              -0.001365202              -0.002153096               0.003439633               0.001286538               0.000000000               0.000000000               0.000000000               0.000000000              -0.002566346               0.007858788              -0.001126180              -0.001944724               0.003267811               0.001323087               0.000000000               0.000000000               0.000000000               0.000000000              -0.002118185               0.007495873              -0.000932287              -0.001731299               0.003075699               0.001344400               0.000000000               0.000000000               0.000000000               0.000000000              -0.001699903               0.007122413              -0.000771057              -0.001527762               0.002883368               0.001355606               0.000000000               0.000000000               0.000000000               0.000000000              -0.001303858               0.006749815              -0.000633114              -0.001332670               0.002694139               0.001361469               0.000000000               0.000000000               0.000000000               0.000000000              -0.000937538               0.006382114              -0.000512493              -0.001149338               0.002510463               0.001361125               0.000000000               0.000000000               0.000000000               0.000000000              -0.000617243               0.006036751              -0.000403628              -0.000986058               0.002340916               0.001354858               0.000000000               0.000000000               0.000000000               0.000000000              -0.000358929               0.005735701              -0.000304082              -0.000851559               0.002195734               0.001344175               0.000000000               0.000000000               0.000000000               0.000000000              -0.000174141               0.005487729              -0.000217303              -0.000751267               0.002079647               0.001328380               0.000000000               0.000000000               0.000000000               0.000000000              -0.000056413               0.005293970              -0.000138846              -0.000682899               0.001992272               0.001309373               0.000000000               0.000000000               0.000000000               0.000000000               0.000004637               0.005153595              -0.000070280              -0.000642459               0.001932001               0.001289542               0.000000000               0.000000000               0.000000000               0.000000000               0.000020906               0.005059520              -0.000022680              -0.000624599               0.001894689               0.001270091               0.000000000               0.000000000               0.000000000               0.000000000               0.000018662               0.005025278              -0.000004792              -0.000621160               0.001882129               0.001260969               0.000000000               0.000000000               0.000000000               0.000000000              -0.002794594               0.002854492              -0.000898102              -0.001404782               0.001419747               0.000014966               0.000000000               0.000000000               0.000000000               0.000000000              -0.003118961               0.004753822              -0.001740723              -0.001763834               0.002172536               0.000408701               0.000000000               0.000000000               0.000000000               0.000000000              -0.003708818               0.006629137              -0.002317394              -0.002219444               0.002949504               0.000730060               0.000000000               0.000000000               0.000000000               0.000000000              -0.003540275               0.007281783              -0.002179485              -0.002237821               0.003173176               0.000935355               0.000000000               0.000000000               0.000000000               0.000000000              -0.003153480               0.007431157              -0.001906526              -0.002111445               0.003180842               0.001069397               0.000000000               0.000000000               0.000000000               0.000000000              -0.002694001               0.007352371              -0.001638194              -0.001929292               0.003093863               0.001164570               0.000000000               0.000000000               0.000000000               0.000000000              -0.002233398               0.007165560              -0.001400772              -0.001733215               0.002966234               0.001233019               0.000000000               0.000000000               0.000000000               0.000000000              -0.001806059               0.006928388              -0.001198581              -0.001543317               0.002823878               0.001280561               0.000000000               0.000000000               0.000000000               0.000000000              -0.001407972               0.006665231              -0.001022165              -0.001361140               0.002675435               0.001314294               0.000000000               0.000000000               0.000000000               0.000000000              -0.001034184               0.006392526              -0.000859112              -0.001186882               0.002526448               0.001339566               0.000000000               0.000000000               0.000000000               0.000000000              -0.000695138               0.006108430              -0.000706225              -0.001024228               0.002377532               0.001353304               0.000000000               0.000000000               0.000000000               0.000000000              -0.000400307               0.005832251              -0.000562090              -0.000879144               0.002237112               0.001357968               0.000000000               0.000000000               0.000000000               0.000000000              -0.000168961               0.005584068              -0.000427237              -0.000761367               0.002115126               0.001353759               0.000000000               0.000000000               0.000000000               0.000000000              -0.000009269               0.005374862              -0.000301020              -0.000675332               0.002016714               0.001341381               0.000000000               0.000000000               0.000000000               0.000000000               0.000080980               0.005207634              -0.000181804              -0.000620585               0.001942722               0.001322137               0.000000000               0.000000000               0.000000000               0.000000000               0.000106590               0.005087493              -0.000080702              -0.000595964               0.001894469               0.001298505               0.000000000               0.000000000               0.000000000               0.000000000               0.000094706               0.005034497              -0.000033016              -0.000593796               0.001876081               0.001282285               0.000000000               0.000000000               0.000000000               0.000000000              -0.004624940               0.001347220              -0.000097984              -0.001902752               0.001083317              -0.000819436               0.000000000               0.000000000               0.000000000               0.000000000              -0.003996689               0.003254145              -0.001416161              -0.001905523               0.001719877              -0.000185646               0.000000000               0.000000000               0.000000000               0.000000000              -0.003905997               0.005085546              -0.002464095              -0.002100438               0.002395310               0.000294872               0.000000000               0.000000000               0.000000000               0.000000000              -0.003549431               0.005974865              -0.002526192              -0.002077891               0.002684231               0.000606340               0.000000000               0.000000000               0.000000000               0.000000000              -0.003123519               0.006390425              -0.002324303              -0.001970119               0.002786826               0.000816707               0.000000000               0.000000000               0.000000000               0.000000000              -0.002670597               0.006548880              -0.002068237              -0.001820080               0.002789631               0.000969551               0.000000000               0.000000000               0.000000000               0.000000000              -0.002217013               0.006561916              -0.001815550              -0.001651616               0.002737822               0.001086206               0.000000000               0.000000000               0.000000000               0.000000000              -0.001788821               0.006490846              -0.001590733              -0.001482160               0.002657647               0.001175487               0.000000000               0.000000000               0.000000000               0.000000000              -0.001392476               0.006370093              -0.001393329              -0.001318437               0.002562822               0.001244385               0.000000000               0.000000000               0.000000000               0.000000000              -0.001018201               0.006214946              -0.001209378              -0.001158691               0.002457858               0.001299167               0.000000000               0.000000000               0.000000000               0.000000000              -0.000666917               0.006025567              -0.001032992              -0.001003288               0.002342931               0.001339644               0.000000000               0.000000000               0.000000000               0.000000000              -0.000348983               0.005814489              -0.000859504              -0.000857678               0.002224036               0.001366358               0.000000000               0.000000000               0.000000000               0.000000000              -0.000074495               0.005604441              -0.000687811              -0.000728489               0.002110958               0.001382469               0.000000000               0.000000000               0.000000000               0.000000000               0.000135044               0.005409478              -0.000514966              -0.000625542               0.002011655               0.001386113               0.000000000               0.000000000               0.000000000               0.000000000               0.000265114               0.005237550              -0.000339392              -0.000555275               0.001930924               0.001375650               0.000000000               0.000000000               0.000000000               0.000000000               0.000310368               0.005102792              -0.000166221              -0.000521460               0.001874734               0.001353274               0.000000000               0.000000000               0.000000000               0.000000000               0.000296545               0.005037567              -0.000077064              -0.000518490               0.001852002               0.001333512               0.000000000               0.000000000               0.000000000               0.000000000              -0.006580295               0.000245253               0.000509399              -0.002498265               0.000914500              -0.001583765               0.000000000               0.000000000               0.000000000               0.000000000              -0.004961506               0.001926940              -0.001044135              -0.002101429               0.001342780              -0.000758649               0.000000000               0.000000000               0.000000000               0.000000000              -0.004072154               0.003498532              -0.002366183              -0.001964370               0.001820954              -0.000143417               0.000000000               0.000000000               0.000000000               0.000000000              -0.003444354               0.004494019              -0.002604941              -0.001853382               0.002115784               0.000262402               0.000000000               0.000000000               0.000000000               0.000000000              -0.002936648               0.005112816              -0.002502780              -0.001740342               0.002284368               0.000544026               0.000000000               0.000000000               0.000000000               0.000000000              -0.002482582               0.005486927              -0.002295482              -0.001616831               0.002367900               0.000751069               0.000000000               0.000000000               0.000000000               0.000000000              -0.002047378               0.005702140              -0.002063700              -0.001480532               0.002394204               0.000913673               0.000000000               0.000000000               0.000000000               0.000000000              -0.001630553               0.005815846              -0.001842616              -0.001338435               0.002384740               0.001046305               0.000000000               0.000000000               0.000000000               0.000000000              -0.001241344               0.005854990              -0.001644533              -0.001197376               0.002350769               0.001153393               0.000000000               0.000000000               0.000000000               0.000000000              -0.000874548               0.005829379              -0.001463823              -0.001056626               0.002295315               0.001238689               0.000000000               0.000000000               0.000000000               0.000000000              -0.000519748               0.005756589              -0.001289029              -0.000914477               0.002223669               0.001309192               0.000000000               0.000000000               0.000000000               0.000000000              -0.000179561               0.005646940              -0.001111526              -0.000773201               0.002140028               0.001366827               0.000000000               0.000000000               0.000000000               0.000000000               0.000132531               0.005513405              -0.000926359              -0.000639475               0.002050942               0.001411466               0.000000000               0.000000000               0.000000000               0.000000000               0.000399195               0.005370532              -0.000724808              -0.000521617               0.001964032               0.001442414               0.000000000               0.000000000               0.000000000               0.000000000               0.000601430               0.005231449              -0.000504357              -0.000428394               0.001886597               0.001458203               0.000000000               0.000000000               0.000000000               0.000000000               0.000716544               0.005108499              -0.000261805              -0.000369858               0.001826102               0.001456244               0.000000000               0.000000000               0.000000000               0.000000000               0.000743346               0.005047334              -0.000133403              -0.000352161               0.001799815               0.001447654               0.000000000               0.000000000               0.000000000               0.000000000              -0.008460914              -0.000465293               0.000821323              -0.003114679               0.000883122              -0.002231557               0.000000000               0.000000000               0.000000000               0.000000000              -0.005920480               0.000848499              -0.000685163              -0.002326240               0.001058239              -0.001268001               0.000000000               0.000000000               0.000000000               0.000000000              -0.004219591               0.002022773              -0.002024272              -0.001835190               0.001285978              -0.000549212               0.000000000               0.000000000               0.000000000               0.000000000              -0.003270517               0.003009170              -0.002361796              -0.001602587               0.001537241              -0.000065347               0.000000000               0.000000000               0.000000000               0.000000000              -0.002645135               0.003751085              -0.002349460              -0.001460809               0.001737284               0.000276475               0.000000000               0.000000000               0.000000000               0.000000000              -0.002163266               0.004291754              -0.002211472              -0.001347692               0.001879800               0.000532108               0.000000000               0.000000000               0.000000000               0.000000000              -0.001743229               0.004682408              -0.002027504              -0.001239010               0.001973790               0.000734780               0.000000000               0.000000000               0.000000000               0.000000000              -0.001347296               0.004964791              -0.001837240              -0.001125833               0.002030191               0.000904358               0.000000000               0.000000000               0.000000000               0.000000000              -0.000973434               0.005158868              -0.001660789              -0.001009895               0.002056236               0.001046342               0.000000000               0.000000000               0.000000000               0.000000000              -0.000614024               0.005274463              -0.001502987              -0.000889565               0.002054658               0.001165093               0.000000000               0.000000000               0.000000000               0.000000000              -0.000259245               0.005328025              -0.001354936              -0.000763219               0.002030396               0.001267178               0.000000000               0.000000000               0.000000000               0.000000000               0.000097994               0.005335689              -0.001200599              -0.000630212               0.001988616               0.001358403               0.000000000               0.000000000               0.000000000               0.000000000               0.000449418               0.005307195              -0.001029535              -0.000494867               0.001934003               0.001439136               0.000000000               0.000000000               0.000000000               0.000000000               0.000784464               0.005248521              -0.000835629              -0.000361891               0.001870120               0.001508229               0.000000000               0.000000000               0.000000000               0.000000000               0.001092571               0.005170627              -0.000607287              -0.000236614               0.001802396               0.001565783               0.000000000               0.000000000               0.000000000               0.000000000               0.001349696               0.005087035              -0.000327502              -0.000129743               0.001738909               0.001609166               0.000000000               0.000000000               0.000000000               0.000000000               0.001489732               0.005055121              -0.000179095              -0.000073241               0.001709437               0.001636196               0.000000000               0.000000000               0.000000000               0.000000000              -0.010046322              -0.000858233               0.000798381              -0.003660089               0.000933946              -0.002726144               0.000000000               0.000000000               0.000000000               0.000000000              -0.006755955               0.000066736              -0.000389885              -0.002541823               0.000869513              -0.001672309               0.000000000               0.000000000               0.000000000               0.000000000              -0.004347290               0.000824270              -0.001476911              -0.001733266               0.000852505              -0.000880760               0.000000000               0.000000000               0.000000000               0.000000000              -0.003080870               0.001727534              -0.001800279              -0.001371266               0.001032925              -0.000338341               0.000000000               0.000000000               0.000000000               0.000000000              -0.002318721               0.002523457              -0.001836193              -0.001184951               0.001236126               0.000051176               0.000000000               0.000000000               0.000000000               0.000000000              -0.001793216               0.003171284              -0.001760392              -0.001068865               0.001413371               0.000344507               0.000000000               0.000000000               0.000000000               0.000000000              -0.001376813               0.003688479              -0.001637462              -0.000977363               0.001555268               0.000577905               0.000000000               0.000000000               0.000000000               0.000000000              -0.001003849               0.004105330              -0.001499389              -0.000889608               0.001664965               0.000775357               0.000000000               0.000000000               0.000000000               0.000000000              -0.000647929               0.004433352              -0.001368039              -0.000797141               0.001743483               0.000946342               0.000000000               0.000000000               0.000000000               0.000000000              -0.000297418               0.004676135              -0.001253263              -0.000696048               0.001790712               0.001094664               0.000000000               0.000000000               0.000000000               0.000000000               0.000053744               0.004846346              -0.001146398              -0.000585638               0.001810645               0.001225007               0.000000000               0.000000000               0.000000000               0.000000000               0.000418021               0.004970073              -0.001033583              -0.000464501               0.001811508               0.001347007               0.000000000               0.000000000               0.000000000               0.000000000               0.000804727               0.005051856              -0.000905068              -0.000329709               0.001793838               0.001464129               0.000000000               0.000000000               0.000000000               0.000000000               0.001210707               0.005084005              -0.000754796              -0.000181485               0.001755146               0.001573661               0.000000000               0.000000000               0.000000000               0.000000000               0.001636645               0.005079601              -0.000568350              -0.000021209               0.001700253               0.001679044               0.000000000               0.000000000               0.000000000               0.000000000               0.002081957               0.005050058              -0.000317525               0.000149475               0.001633511               0.001782986               0.000000000               0.000000000               0.000000000               0.000000000               0.002393848               0.005060866              -0.000183894               0.000265082               0.001598578               0.001863660               0.000000000               0.000000000               0.000000000               0.000000000              -0.011112844              -0.001030780               0.000488008              -0.004038466               0.001002555              -0.003035911               0.000000000               0.000000000               0.000000000               0.000000000              -0.007334524              -0.000400071              -0.000167440              -0.002700436               0.000766783              -0.001933653               0.000000000               0.000000000               0.000000000               0.000000000              -0.004437725               0.000042557              -0.000778066              -0.001669465               0.000570670              -0.001098795               0.000000000               0.000000000               0.000000000               0.000000000              -0.002936440               0.000850883              -0.000976217              -0.001207524               0.000686131              -0.000521393               0.000000000               0.000000000               0.000000000               0.000000000              -0.002062027               0.001655568              -0.001011190              -0.000980204               0.000878584              -0.000101620               0.000000000               0.000000000               0.000000000               0.000000000              -0.001495762               0.002362442              -0.000980074              -0.000856214               0.001072877               0.000216663               0.000000000               0.000000000               0.000000000               0.000000000              -0.001075402               0.002960504              -0.000918709              -0.000773337               0.001244603               0.000471266               0.000000000               0.000000000               0.000000000               0.000000000              -0.000715460               0.003463957              -0.000845799              -0.000701291               0.001388404               0.000687114               0.000000000               0.000000000               0.000000000               0.000000000              -0.000372706               0.003880135              -0.000777090              -0.000624780               0.001501625               0.000876845               0.000000000               0.000000000               0.000000000               0.000000000              -0.000034041               0.004213523              -0.000716680              -0.000539455               0.001584312               0.001044857               0.000000000               0.000000000               0.000000000               0.000000000               0.000309917               0.004472561              -0.000660261              -0.000442851               0.001638455               0.001195605               0.000000000               0.000000000               0.000000000               0.000000000               0.000677650               0.004679578              -0.000602704              -0.000330828               0.001670120               0.001339292               0.000000000               0.000000000               0.000000000               0.000000000               0.001086696               0.004844305              -0.000536386              -0.000198027               0.001680761               0.001482734               0.000000000               0.000000000               0.000000000               0.000000000               0.001546641               0.004954766              -0.000455343              -0.000039356               0.001664691               0.001625335               0.000000000               0.000000000               0.000000000               0.000000000               0.002069568               0.005011875              -0.000352314               0.000149602               0.001620741               0.001770343               0.000000000               0.000000000               0.000000000               0.000000000               0.002677159               0.005023052              -0.000204297               0.000376049               0.001548984               0.001925033               0.000000000               0.000000000               0.000000000               0.000000000               0.003150723               0.005069349              -0.000124636               0.000547847               0.001507150               0.002054997               0.000000000               0.000000000               0.000000000               0.000000000              -0.011489680              -0.001073916              -0.000000000              -0.004174388               0.001033484              -0.003140904               0.000000000               0.000000000               0.000000000               0.000000000              -0.007543064              -0.000553500              -0.000000000              -0.002759460               0.000735315              -0.002024145               0.000000000               0.000000000               0.000000000               0.000000000              -0.004470421              -0.000228528              -0.000000000              -0.001647841               0.000473101              -0.001174740               0.000000000               0.000000000               0.000000000               0.000000000              -0.002882545               0.000539483               0.000000000              -0.001148388               0.000562620              -0.000585769               0.000000000               0.000000000               0.000000000               0.000000000              -0.001964940               0.001342488              -0.000000000              -0.000904662               0.000749045              -0.000155617               0.000000000               0.000000000               0.000000000               0.000000000              -0.001381742               0.002067312              -0.000000000              -0.000776566               0.000947952               0.000171387               0.000000000               0.000000000               0.000000000               0.000000000              -0.000961345               0.002690663               0.000000000              -0.000696836               0.001129157               0.000432322               0.000000000               0.000000000               0.000000000               0.000000000              -0.000603203               0.003223196               0.000000000              -0.000629099               0.001284088               0.000654988               0.000000000               0.000000000               0.000000000               0.000000000              -0.000265271               0.003670721              -0.000000000              -0.000558315               0.001409667               0.000851351               0.000000000               0.000000000               0.000000000               0.000000000               0.000067201               0.004039694               0.000000000              -0.000479760               0.001506471               0.001026711               0.000000000               0.000000000               0.000000000               0.000000000               0.000409287               0.004335084               0.000000000              -0.000388402               0.001574481               0.001186079               0.000000000               0.000000000               0.000000000               0.000000000               0.000779794               0.004574788              -0.000000000              -0.000279425               0.001618056               0.001338631               0.000000000               0.000000000               0.000000000               0.000000000               0.001196714               0.004771789               0.000000000              -0.000147706               0.001639816               0.001492110               0.000000000               0.000000000               0.000000000               0.000000000               0.001675645               0.004910901              -0.000000000               0.000014504               0.001632116               0.001646620               0.000000000               0.000000000               0.000000000               0.000000000               0.002236569               0.004989656               0.000000000               0.000215004               0.001591534               0.001806538               0.000000000               0.000000000               0.000000000               0.000000000               0.002907837               0.005013138               0.000000000               0.000463792               0.001516432               0.001980224               0.000000000               0.000000000               0.000000000               0.000000000               0.003447414               0.005071132               0.000000000               0.000658882               0.001470733               0.002129615               0.000000000               0.000000000               0.000000000               0.000000000               0.000000000               0.000000000               0.000000000               0.000000000               0.000000000               0.000000000               0.000000000               0.000000000               0.000000000               0.000000000               0.000000000               0.000000000               0.000000000               0.000000000               0.000000000               0.000000000               0.000000000               0.000000000               0.000000000               0.000000000               0.000000000               0.000000000               0.000000000               0.000000000               0.000000000               0.000000000               0.000000000               0.000000000               0.000000000               0.000000000               0.000000000               0.000000000               0.000000000               0.000000000               0.000000000               0.000000000               0.000000000               0.000000000               0.000000000               0.000000000               0.000000000               0.000000000               0.000000000               0.000000000               0.000000000               0.000000000               0.000000000               0.000000000               0.000000000               0.000000000               0.000000000               0.000000000               0.000000000               0.000000000               0.000000000               0.000000000               0.000000000               0.000000000               0.000000000               0.000000000               0.000000000               0.000000000               0.000000000               0.000000000               0.000000000               0.000000000               0.000000000               0.000000000               0.000000000               0.000000000               0.000000000               0.000000000               0.000000000               0.000000000               0.000000000               0.000000000               0.000000000               0.000000000               0.000000000               0.000000000               0.000000000               0.000000000               0.000000000               0.000000000               0.000000000               0.000000000               0.000000000               0.000000000               0.000000000               0.000000000               0.000000000               0.000000000               0.000000000               0.000000000               0.000000000               0.000000000               0.000000000               0.000000000               0.000000000               0.000000000               0.000000000               0.000000000               0.000000000               0.000000000               0.000000000               0.000000000               0.000000000               0.000000000               0.000000000               0.000000000               0.000000000               0.000000000               0.000000000               0.000000000               0.000000000               0.000000000               0.000000000               0.000000000               0.000000000               0.000000000               0.000000000               0.000000000               0.000000000               0.000000000               0.000000000               0.000000000               0.000000000               0.000000000               0.000000000               0.000000000               0.000000000               0.000000000               0.000000000               0.000000000               0.000000000               0.000000000               0.000000000               0.000000000               0.000000000               0.000000000               0.000000000               0.000000000               0.000000000               0.000000000               0.000000000               0.000000000               0.000000000               0.000000000               0.000000000               0.000000000               0.000000000               0.000000000               0.000000000               0.000000000               0.000000000               0.000000000               0.000000000               0.000000000               0.000000000               0.000000000               0.000000000               0.000000000               0.000000000               0.000000000               0.000000000               0.000000000               0.000000000               0.000000000               0.000000000               0.000000000               0.002285044               0.023381983               0.001630500              -0.002065852               0.008482534               0.006416682               0.000000000               0.000000000               0.000000000               0.000000000               0.002157816               0.018336175               0.000816907              -0.001482837               0.006606276               0.005123439               0.000000000               0.000000000               0.000000000               0.000000000               0.002720510               0.014268373               0.000002820              -0.000763353               0.005010528               0.004247174               0.000000000               0.000000000               0.000000000               0.000000000               0.002544431               0.011974660              -0.000339715              -0.000542670               0.004172403               0.003629734               0.000000000               0.000000000               0.000000000               0.000000000               0.002169985               0.010528555              -0.000472653              -0.000502324               0.003676925               0.003174601               0.000000000               0.000000000               0.000000000               0.000000000               0.001781228               0.009529175              -0.000515613              -0.000523185               0.003350755               0.002827570               0.000000000               0.000000000               0.000000000               0.000000000               0.001425198               0.008778343              -0.000519204              -0.000562842               0.003113699               0.002550857               0.000000000               0.000000000               0.000000000               0.000000000               0.001111056               0.008171800              -0.000505397              -0.000604828               0.002925515               0.002320688               0.000000000               0.000000000               0.000000000               0.000000000               0.000839482               0.007650437              -0.000483103              -0.000641497               0.002763952               0.002122455               0.000000000               0.000000000               0.000000000               0.000000000               0.000614274               0.007178807              -0.000454247              -0.000666997               0.002615244               0.001948247               0.000000000               0.000000000               0.000000000               0.000000000               0.000434046               0.006731846              -0.000420266              -0.000678712               0.002470164               0.001791452               0.000000000               0.000000000               0.000000000               0.000000000               0.000286903               0.006287966              -0.000383178              -0.000678405               0.002322103               0.001643698               0.000000000               0.000000000               0.000000000               0.000000000               0.000168952               0.005833752              -0.000344344              -0.000665860               0.002166518               0.001500657               0.000000000               0.000000000               0.000000000               0.000000000               0.000078272               0.005355737              -0.000295733              -0.000640113               0.001998599               0.001358485               0.000000000               0.000000000               0.000000000               0.000000000               0.000017953               0.004839204              -0.000228003              -0.000598167               0.001812441               0.001214274               0.000000000               0.000000000               0.000000000               0.000000000              -0.000003541               0.004270348              -0.000129912              -0.000535120               0.001601809               0.001066688               0.000000000               0.000000000               0.000000000               0.000000000              -0.000050313               0.003842017              -0.000081865              -0.000499118               0.001447032               0.000947914               0.000000000               0.000000000               0.000000000               0.000000000               0.002471811               0.021962774               0.003028763              -0.001818415               0.007926989               0.006108575               0.000000000               0.000000000               0.000000000               0.000000000               0.002003584               0.017404437               0.001513057              -0.001424208               0.006276157               0.004851949               0.000000000               0.000000000               0.000000000               0.000000000               0.002202668               0.013843839               0.000013529              -0.000904477               0.004916059               0.004011582               0.000000000               0.000000000               0.000000000               0.000000000               0.001890787               0.011800021              -0.000599721              -0.000765956               0.004188620               0.003422664               0.000000000               0.000000000               0.000000000               0.000000000               0.001488794               0.010480305              -0.000832233              -0.000751739               0.003743980               0.002992241               0.000000000               0.000000000               0.000000000               0.000000000               0.001127809               0.009541167              -0.000902138              -0.000769716               0.003436929               0.002667213               0.000000000               0.000000000               0.000000000               0.000000000               0.000825639               0.008812664              -0.000902205              -0.000791967               0.003201514               0.002409547               0.000000000               0.000000000               0.000000000               0.000000000               0.000572355               0.008208210              -0.000871727              -0.000811391               0.003006506               0.002195115               0.000000000               0.000000000               0.000000000               0.000000000               0.000365222               0.007679765              -0.000828322              -0.000823011               0.002834233               0.002011222               0.000000000               0.000000000               0.000000000               0.000000000               0.000201410               0.007203213              -0.000777528              -0.000824871               0.002676004               0.001851133               0.000000000               0.000000000               0.000000000               0.000000000               0.000078672               0.006756881              -0.000718816              -0.000815106               0.002523973               0.001708867               0.000000000               0.000000000               0.000000000               0.000000000              -0.000010599               0.006321243              -0.000653291              -0.000794128               0.002371769               0.001577641               0.000000000               0.000000000               0.000000000               0.000000000              -0.000069511               0.005879517              -0.000581139              -0.000761004               0.002213487               0.001452483               0.000000000               0.000000000               0.000000000               0.000000000              -0.000093248               0.005423824              -0.000492845              -0.000712944               0.002045571               0.001332627               0.000000000               0.000000000               0.000000000               0.000000000              -0.000083522               0.004956750              -0.000377322              -0.000650913               0.001869205               0.001218292               0.000000000               0.000000000               0.000000000               0.000000000              -0.000049851               0.004479436              -0.000214937              -0.000578622               0.001686005               0.001107382               0.000000000               0.000000000               0.000000000               0.000000000              -0.000065034               0.004145135              -0.000133526              -0.000542528               0.001562541               0.001020012               0.000000000               0.000000000               0.000000000               0.000000000               0.002657448               0.019794418               0.004019923              -0.001477758               0.007090659               0.005612901               0.000000000               0.000000000               0.000000000               0.000000000               0.001710273               0.016007200               0.002011809              -0.001359545               0.005788862               0.004429316               0.000000000               0.000000000               0.000000000               0.000000000               0.001403967               0.013217485               0.000055705              -0.001125695               0.004781016               0.003655321               0.000000000               0.000000000               0.000000000               0.000000000               0.000941543               0.011538568              -0.000705754              -0.001089240               0.004209231               0.003119991               0.000000000               0.000000000               0.000000000               0.000000000               0.000539210               0.010393267              -0.000978337              -0.001096952               0.003830038               0.002733086               0.000000000               0.000000000               0.000000000               0.000000000               0.000237238               0.009528060              -0.001049795              -0.001102041               0.003543335               0.002441294               0.000000000               0.000000000               0.000000000               0.000000000               0.000020998               0.008829813              -0.001039856              -0.001095850               0.003308525               0.002212675               0.000000000               0.000000000               0.000000000               0.000000000              -0.000136148               0.008232446              -0.000996979              -0.001080109               0.003104157               0.002024049               0.000000000               0.000000000               0.000000000               0.000000000              -0.000239098               0.007705440              -0.000944519              -0.001052839               0.002919401               0.001866561               0.000000000               0.000000000               0.000000000               0.000000000              -0.000300471               0.007227326              -0.000887059              -0.001016090               0.002747781               0.001731691               0.000000000               0.000000000               0.000000000               0.000000000              -0.000331084               0.006779555              -0.000819642              -0.000971599               0.002583695               0.001612096               0.000000000               0.000000000               0.000000000               0.000000000              -0.000329972               0.006350179              -0.000740496              -0.000917510               0.002422542               0.001505032               0.000000000               0.000000000               0.000000000               0.000000000              -0.000298969               0.005929179              -0.000648001              -0.000853259               0.002260793               0.001407534               0.000000000               0.000000000               0.000000000               0.000000000              -0.000243542               0.005517409              -0.000539466              -0.000781002               0.002099452               0.001318450               0.000000000               0.000000000               0.000000000               0.000000000              -0.000166011               0.005131018              -0.000404048              -0.000703630               0.001944865               0.001241236               0.000000000               0.000000000               0.000000000               0.000000000              -0.000082086               0.004785299              -0.000224473              -0.000628943               0.001804732               0.001175788               0.000000000               0.000000000               0.000000000               0.000000000              -0.000064786               0.004574121              -0.000134104              -0.000596058               0.001723378               0.001127320               0.000000000               0.000000000               0.000000000               0.000000000               0.002698892               0.017159085               0.004517195              -0.001132802               0.006097237               0.004964436               0.000000000               0.000000000               0.000000000               0.000000000               0.001257923               0.014350083               0.002292219              -0.001322037               0.005223992               0.003901955               0.000000000               0.000000000               0.000000000               0.000000000               0.000425963               0.012484471               0.000159693              -0.001400819               0.004628388               0.003227569               0.000000000               0.000000000               0.000000000               0.000000000              -0.000140526               0.011208448              -0.000620525              -0.001453750               0.004220695               0.002766945               0.000000000               0.000000000               0.000000000               0.000000000              -0.000489845               0.010240529              -0.000881419              -0.001463754               0.003901394               0.002437639               0.000000000               0.000000000               0.000000000               0.000000000              -0.000682771               0.009456342              -0.000940435              -0.001438078               0.003631442               0.002193364               0.000000000               0.000000000               0.000000000               0.000000000              -0.000775037               0.008793978              -0.000927119              -0.001389883               0.003394591               0.002004708               0.000000000               0.000000000               0.000000000               0.000000000              -0.000806346               0.008211342              -0.000887887              -0.001328794               0.003180018               0.001851224               0.000000000               0.000000000               0.000000000               0.000000000              -0.000788120               0.007688543              -0.000843116              -0.001256610               0.002981692               0.001725082               0.000000000               0.000000000               0.000000000               0.000000000              -0.000734068               0.007208525              -0.000792697              -0.001176338               0.002794931               0.001618592               0.000000000               0.000000000               0.000000000               0.000000000              -0.000654187               0.006757455              -0.000731643              -0.001089999               0.002615796               0.001525796               0.000000000               0.000000000               0.000000000               0.000000000              -0.000550928               0.006331142              -0.000656164              -0.000997989               0.002443022               0.001445034               0.000000000               0.000000000               0.000000000               0.000000000              -0.000430423               0.005933985              -0.000562786              -0.000903155               0.002279027               0.001375872               0.000000000               0.000000000               0.000000000               0.000000000              -0.000303620               0.005577446              -0.000454355              -0.000811036               0.002129476               0.001318439               0.000000000               0.000000000               0.000000000               0.000000000              -0.000182873               0.005277003              -0.000327511              -0.000728201               0.002001717               0.001273516               0.000000000               0.000000000               0.000000000               0.000000000              -0.000083283               0.005050927              -0.000173957              -0.000662595               0.001904491               0.001241895               0.000000000               0.000000000               0.000000000               0.000000000              -0.000050802               0.004942222              -0.000096362              -0.000636827               0.001859667               0.001222840               0.000000000               0.000000000               0.000000000               0.000000000               0.002470370               0.014332944               0.004536211              -0.000865231               0.005066010               0.004200778               0.000000000               0.000000000               0.000000000               0.000000000               0.000645801               0.012612829               0.002389341              -0.001334426               0.004649042               0.003314616               0.000000000               0.000000000               0.000000000               0.000000000              -0.000614544               0.011695814               0.000357270              -0.001692427               0.004462708               0.002770281               0.000000000               0.000000000               0.000000000               0.000000000              -0.001189415               0.010795420              -0.000342723              -0.001795454               0.004196922               0.002401468               0.000000000               0.000000000               0.000000000               0.000000000              -0.001418846               0.009986951              -0.000572610              -0.001780432               0.003922428               0.002141996               0.000000000               0.000000000               0.000000000               0.000000000              -0.001460218               0.009279021              -0.000630631              -0.001707455               0.003662128               0.001954672               0.000000000               0.000000000               0.000000000               0.000000000              -0.001406360               0.008653075              -0.000633703              -0.001609015               0.003420668               0.001811653               0.000000000               0.000000000               0.000000000               0.000000000              -0.001304164               0.008090854              -0.000615738              -0.001500414               0.003197062               0.001696648               0.000000000               0.000000000               0.000000000               0.000000000              -0.001169766               0.007575571              -0.000592121              -0.001385605               0.002987033               0.001601428               0.000000000               0.000000000               0.000000000               0.000000000              -0.001006082               0.007095182              -0.000561198              -0.001264175               0.002786429               0.001522253               0.000000000               0.000000000               0.000000000               0.000000000              -0.000821643               0.006640276              -0.000518215              -0.001138148               0.002592786               0.001454638               0.000000000               0.000000000               0.000000000               0.000000000              -0.000631396               0.006220562              -0.000459811              -0.001014341               0.002411614               0.001397273               0.000000000               0.000000000               0.000000000               0.000000000              -0.000448028               0.005852054              -0.000383729              -0.000899515               0.002250503               0.001350988               0.000000000               0.000000000               0.000000000               0.000000000              -0.000283764               0.005548854              -0.000295079              -0.000800016               0.002116272               0.001316255               0.000000000               0.000000000               0.000000000               0.000000000              -0.000152400               0.005318046              -0.000195925              -0.000721904               0.002013299               0.001291395               0.000000000               0.000000000               0.000000000               0.000000000              -0.000062005               0.005167150              -0.000093809              -0.000669144               0.001945414               0.001276270               0.000000000               0.000000000               0.000000000               0.000000000              -0.000032850               0.005106678              -0.000047567              -0.000650652               0.001919093               0.001268441               0.000000000               0.000000000               0.000000000               0.000000000               0.001914569               0.011532387               0.004162110              -0.000723587               0.004085285               0.003361698               0.000000000               0.000000000               0.000000000               0.000000000              -0.000092606               0.010911127               0.002361828              -0.001398616               0.004103211               0.002704595               0.000000000               0.000000000               0.000000000               0.000000000              -0.001603619               0.010870099               0.000656765              -0.001960115               0.004276701               0.002316587               0.000000000               0.000000000               0.000000000               0.000000000              -0.002073328               0.010287540               0.000080402              -0.002063435               0.004116957               0.002053522               0.000000000               0.000000000               0.000000000               0.000000000              -0.002126033               0.009618094              -0.000131220              -0.001999519               0.003872506               0.001872987               0.000000000               0.000000000               0.000000000               0.000000000              -0.001997422               0.008976332              -0.000214196              -0.001871070               0.003615771               0.001744701               0.000000000               0.000000000               0.000000000               0.000000000              -0.001800049               0.008385377              -0.000255193              -0.001723186               0.003369493               0.001646307               0.000000000               0.000000000               0.000000000               0.000000000              -0.001578348               0.007842298              -0.000275825              -0.001572164               0.003138128               0.001565964               0.000000000               0.000000000               0.000000000               0.000000000              -0.001341952               0.007340622              -0.000283419              -0.001420806               0.002920452               0.001499645               0.000000000               0.000000000               0.000000000               0.000000000              -0.001090258               0.006864479              -0.000277348              -0.001266904               0.002710438               0.001443534               0.000000000               0.000000000               0.000000000               0.000000000              -0.000833036               0.006419435              -0.000258236              -0.001114815               0.002511395               0.001396580               0.000000000               0.000000000               0.000000000               0.000000000              -0.000592103               0.006026642              -0.000227074              -0.000975366               0.002333983               0.001358616               0.000000000               0.000000000               0.000000000               0.000000000              -0.000384430               0.005701667              -0.000181232              -0.000856868               0.002186159               0.001329292               0.000000000               0.000000000               0.000000000               0.000000000              -0.000220654               0.005449590              -0.000126952              -0.000763942               0.002071159               0.001307217               0.000000000               0.000000000               0.000000000               0.000000000              -0.000105828               0.005268569              -0.000072373              -0.000698255               0.001988924               0.001290669               0.000000000               0.000000000               0.000000000               0.000000000              -0.000037224               0.005152705              -0.000027514              -0.000658045               0.001936899               0.001278854               0.000000000               0.000000000               0.000000000               0.000000000              -0.000023278               0.005098491              -0.000014346              -0.000646039               0.001914826               0.001268788               0.000000000               0.000000000               0.000000000               0.000000000               0.001053593               0.008934713               0.003497371              -0.000721743               0.003218788               0.002497044               0.000000000               0.000000000               0.000000000               0.000000000              -0.000916199               0.009342378               0.002256612              -0.001511370               0.003617884               0.002106515               0.000000000               0.000000000               0.000000000               0.000000000              -0.002447729               0.010022596               0.001039543              -0.002170718               0.004064405               0.001893687               0.000000000               0.000000000               0.000000000               0.000000000              -0.002717675               0.009691350               0.000574503              -0.002230542               0.003973932               0.001743390               0.000000000               0.000000000               0.000000000               0.000000000              -0.002568866               0.009146168               0.000349791              -0.002106591               0.003750889               0.001644298               0.000000000               0.000000000               0.000000000               0.000000000              -0.002278871               0.008571874               0.000220896              -0.001926056               0.003499281               0.001573225               0.000000000               0.000000000               0.000000000               0.000000000              -0.001958616               0.008018985               0.000131102              -0.001736850               0.003251918               0.001515068               0.000000000               0.000000000               0.000000000               0.000000000              -0.001635753               0.007498966               0.000062992              -0.001550774               0.003016555               0.001465781               0.000000000               0.000000000               0.000000000               0.000000000              -0.001314537               0.007012200               0.000015494              -0.001369473               0.002793868               0.001424394               0.000000000               0.000000000               0.000000000               0.000000000              -0.001002597               0.006554898              -0.000009054              -0.001195333               0.002583388               0.001388055               0.000000000               0.000000000               0.000000000               0.000000000              -0.000711266               0.006144642              -0.000021413              -0.001034803               0.002393128               0.001358325               0.000000000               0.000000000               0.000000000               0.000000000              -0.000463215               0.005799406              -0.000027855              -0.000898629               0.002232659               0.001334030               0.000000000               0.000000000               0.000000000               0.000000000              -0.000272064               0.005526667              -0.000023666              -0.000792855               0.002106489               0.001313634               0.000000000               0.000000000               0.000000000               0.000000000              -0.000138486               0.005325547              -0.000012766              -0.000717624               0.002014373               0.001296749               0.000000000               0.000000000               0.000000000               0.000000000              -0.000055943               0.005185869              -0.000004047              -0.000669211               0.001951676               0.001282465               0.000000000               0.000000000               0.000000000               0.000000000              -0.000015846               0.005094901              -0.000001190              -0.000642803               0.001912551               0.001269748               0.000000000               0.000000000               0.000000000               0.000000000              -0.000014727               0.005049370              -0.000006338              -0.000636692               0.001895337               0.001258645               0.000000000               0.000000000               0.000000000               0.000000000               0.000005546               0.006735679               0.002665732              -0.000839880               0.002525163               0.001685283               0.000000000               0.000000000               0.000000000               0.000000000              -0.001719946               0.007946040               0.002124832              -0.001638232               0.003194730               0.001556499               0.000000000               0.000000000               0.000000000               0.000000000              -0.003093463               0.009195704               0.001486171              -0.002309506               0.003835039               0.001525533               0.000000000               0.000000000               0.000000000               0.000000000              -0.003145362               0.009127203               0.001094827              -0.002320405               0.003815839               0.001495433               0.000000000               0.000000000               0.000000000               0.000000000              -0.002831812               0.008727209               0.000834704              -0.002152825               0.003626649               0.001473824               0.000000000               0.000000000               0.000000000               0.000000000              -0.002416666               0.008238295               0.000650435              -0.001936032               0.003391415               0.001455383               0.000000000               0.000000000               0.000000000               0.000000000              -0.002001981               0.007740649               0.000509177              -0.001718320               0.003152964               0.001434644               0.000000000               0.000000000               0.000000000               0.000000000              -0.001603627               0.007259265               0.000394246              -0.001508765               0.002922652               0.001413888               0.000000000               0.000000000               0.000000000               0.000000000              -0.001219412               0.006798377               0.000301869              -0.001307073               0.002701794               0.001394721               0.000000000               0.000000000               0.000000000               0.000000000              -0.000865724               0.006363115               0.000233117              -0.001120033               0.002494362               0.001374329               0.000000000               0.000000000               0.000000000               0.000000000              -0.000559147               0.005983198               0.000177700              -0.000957577               0.002313572               0.001355994               0.000000000               0.000000000               0.000000000               0.000000000              -0.000322000               0.005671526               0.000126739              -0.000829688               0.002167053               0.001337364               0.000000000               0.000000000               0.000000000               0.000000000              -0.000157482               0.005429535               0.000086290              -0.000737746               0.002055742               0.001317996               0.000000000               0.000000000               0.000000000               0.000000000              -0.000055532               0.005251292               0.000053059              -0.000677234               0.001976158               0.001298924               0.000000000               0.000000000               0.000000000               0.000000000              -0.000005491               0.005130727               0.000024412              -0.000643398               0.001924691               0.001281293               0.000000000               0.000000000               0.000000000               0.000000000               0.000004433               0.005054562               0.000003018              -0.000630156               0.001894889               0.001264733               0.000000000               0.000000000               0.000000000               0.000000000              -0.000001044               0.005023450              -0.000006375              -0.000628321               0.001883907               0.001255586               0.000000000               0.000000000               0.000000000               0.000000000              -0.001222172               0.004696113               0.001779740              -0.001045327               0.001913797               0.000868470               0.000000000               0.000000000               0.000000000               0.000000000              -0.002380837               0.006350190               0.001971181              -0.001686584               0.002678903               0.000992319               0.000000000               0.000000000               0.000000000               0.000000000              -0.003452296               0.008005336               0.001953083              -0.002295273               0.003433509               0.001138236               0.000000000               0.000000000               0.000000000               0.000000000              -0.003388411               0.008309585               0.001652721              -0.002309347               0.003539616               0.001230269               0.000000000               0.000000000               0.000000000               0.000000000              -0.003019639               0.008165886               0.001365202              -0.002153096               0.003439633               0.001286538               0.000000000               0.000000000               0.000000000               0.000000000              -0.002566346               0.007858788               0.001126180              -0.001944724               0.003267811               0.001323087               0.000000000               0.000000000               0.000000000               0.000000000              -0.002118185               0.007495873               0.000932287              -0.001731299               0.003075699               0.001344400               0.000000000               0.000000000               0.000000000               0.000000000              -0.001699903               0.007122413               0.000771057              -0.001527762               0.002883368               0.001355606               0.000000000               0.000000000               0.000000000               0.000000000              -0.001303858               0.006749815               0.000633114              -0.001332670               0.002694139               0.001361469               0.000000000               0.000000000               0.000000000               0.000000000              -0.000937538               0.006382114               0.000512493              -0.001149338               0.002510463               0.001361125               0.000000000               0.000000000               0.000000000               0.000000000              -0.000617243               0.006036751               0.000403628              -0.000986058               0.002340916               0.001354858               0.000000000               0.000000000               0.000000000               0.000000000              -0.000358929               0.005735701               0.000304082              -0.000851559               0.002195734               0.001344175               0.000000000               0.000000000               0.000000000               0.000000000              -0.000174141               0.005487729               0.000217303              -0.000751267               0.002079647               0.001328380               0.000000000               0.000000000               0.000000000               0.000000000              -0.000056413               0.005293970               0.000138846              -0.000682899               0.001992272               0.001309373               0.000000000               0.000000000               0.000000000               0.000000000               0.000004637               0.005153595               0.000070280              -0.000642459               0.001932001               0.001289542               0.000000000               0.000000000               0.000000000               0.000000000               0.000020906               0.005059520               0.000022680              -0.000624599               0.001894689               0.001270091               0.000000000               0.000000000               0.000000000               0.000000000               0.000018662               0.005025278               0.000004792              -0.000621160               0.001882129               0.001260969               0.000000000               0.000000000               0.000000000               0.000000000              -0.002794594               0.002854492               0.000898102              -0.001404782               0.001419747               0.000014966               0.000000000               0.000000000               0.000000000               0.000000000              -0.003118961               0.004753822               0.001740723              -0.001763834               0.002172536               0.000408701               0.000000000               0.000000000               0.000000000               0.000000000              -0.003708818               0.006629137               0.002317394              -0.002219444               0.002949504               0.000730060               0.000000000               0.000000000               0.000000000               0.000000000              -0.003540275               0.007281783               0.002179485              -0.002237821               0.003173176               0.000935355               0.000000000               0.000000000               0.000000000               0.000000000              -0.003153480               0.007431157               0.001906526              -0.002111445               0.003180842               0.001069397               0.000000000               0.000000000               0.000000000               0.000000000              -0.002694001               0.007352371               0.001638194              -0.001929292               0.003093863               0.001164570               0.000000000               0.000000000               0.000000000               0.000000000              -0.002233398               0.007165560               0.001400772              -0.001733215               0.002966234               0.001233019               0.000000000               0.000000000               0.000000000               0.000000000              -0.001806059               0.006928388               0.001198581              -0.001543317               0.002823878               0.001280561               0.000000000               0.000000000               0.000000000               0.000000000              -0.001407972               0.006665231               0.001022165              -0.001361140               0.002675435               0.001314294               0.000000000               0.000000000               0.000000000               0.000000000              -0.001034184               0.006392526               0.000859112              -0.001186882               0.002526448               0.001339566               0.000000000               0.000000000               0.000000000               0.000000000              -0.000695138               0.006108430               0.000706225              -0.001024228               0.002377532               0.001353304               0.000000000               0.000000000               0.000000000               0.000000000              -0.000400307               0.005832251               0.000562090              -0.000879144               0.002237112               0.001357968               0.000000000               0.000000000               0.000000000               0.000000000              -0.000168961               0.005584068               0.000427237              -0.000761367               0.002115126               0.001353759               0.000000000               0.000000000               0.000000000               0.000000000              -0.000009269               0.005374862               0.000301020              -0.000675332               0.002016714               0.001341381               0.000000000               0.000000000               0.000000000               0.000000000               0.000080980               0.005207634               0.000181804              -0.000620585               0.001942722               0.001322137               0.000000000               0.000000000               0.000000000               0.000000000               0.000106590               0.005087493               0.000080702              -0.000595964               0.001894469               0.001298505               0.000000000               0.000000000               0.000000000               0.000000000               0.000094706               0.005034497               0.000033016              -0.000593796               0.001876081               0.001282285               0.000000000               0.000000000               0.000000000               0.000000000              -0.004624940               0.001347220               0.000097984              -0.001902752               0.001083317              -0.000819436               0.000000000               0.000000000               0.000000000               0.000000000              -0.003996689               0.003254145               0.001416161              -0.001905523               0.001719877              -0.000185646               0.000000000               0.000000000               0.000000000               0.000000000              -0.003905997               0.005085546               0.002464095              -0.002100438               0.002395310               0.000294872               0.000000000               0.000000000               0.000000000               0.000000000              -0.003549431               0.005974865               0.002526192              -0.002077891               0.002684231               0.000606340               0.000000000               0.000000000               0.000000000               0.000000000              -0.003123519               0.006390425               0.002324303              -0.001970119               0.002786826               0.000816707               0.000000000               0.000000000               0.000000000               0.000000000              -0.002670597               0.006548880               0.002068237              -0.001820080               0.002789631               0.000969551               0.000000000               0.000000000               0.000000000               0.000000000              -0.002217013               0.006561916               0.001815550              -0.001651616               0.002737822               0.001086206               0.000000000               0.000000000               0.000000000               0.000000000              -0.001788821               0.006490846               0.001590733              -0.001482160               0.002657647               0.001175487               0.000000000               0.000000000               0.000000000               0.000000000              -0.001392476               0.006370093               0.001393329              -0.001318437               0.002562822               0.001244385               0.000000000               0.000000000               0.000000000               0.000000000              -0.001018201               0.006214946               0.001209378              -0.001158691               0.002457858               0.001299167               0.000000000               0.000000000               0.000000000               0.000000000              -0.000666917               0.006025567               0.001032992              -0.001003288               0.002342931               0.001339644               0.000000000               0.000000000               0.000000000               0.000000000              -0.000348983               0.005814489               0.000859504              -0.000857678               0.002224036               0.001366358               0.000000000               0.000000000               0.000000000               0.000000000              -0.000074495               0.005604441               0.000687811              -0.000728489               0.002110958               0.001382469               0.000000000               0.000000000               0.000000000               0.000000000               0.000135044               0.005409478               0.000514966              -0.000625542               0.002011655               0.001386113               0.000000000               0.000000000               0.000000000               0.000000000               0.000265114               0.005237550               0.000339392              -0.000555275               0.001930924               0.001375650               0.000000000               0.000000000               0.000000000               0.000000000               0.000310368               0.005102792               0.000166221              -0.000521460               0.001874734               0.001353274               0.000000000               0.000000000               0.000000000               0.000000000               0.000296545               0.005037567               0.000077064              -0.000518490               0.001852002               0.001333512               0.000000000               0.000000000               0.000000000               0.000000000              -0.006580295               0.000245253              -0.000509399              -0.002498265               0.000914500              -0.001583765               0.000000000               0.000000000               0.000000000               0.000000000              -0.004961506               0.001926940               0.001044135              -0.002101429               0.001342780              -0.000758649               0.000000000               0.000000000               0.000000000               0.000000000              -0.004072154               0.003498532               0.002366183              -0.001964370               0.001820954              -0.000143417               0.000000000               0.000000000               0.000000000               0.000000000              -0.003444354               0.004494019               0.002604941              -0.001853382               0.002115784               0.000262402               0.000000000               0.000000000               0.000000000               0.000000000              -0.002936648               0.005112816               0.002502780              -0.001740342               0.002284368               0.000544026               0.000000000               0.000000000               0.000000000               0.000000000              -0.002482582               0.005486927               0.002295482              -0.001616831               0.002367900               0.000751069               0.000000000               0.000000000               0.000000000               0.000000000              -0.002047378               0.005702140               0.002063700              -0.001480532               0.002394204               0.000913673               0.000000000               0.000000000               0.000000000               0.000000000              -0.001630553               0.005815846               0.001842616              -0.001338435               0.002384740               0.001046305               0.000000000               0.000000000               0.000000000               0.000000000              -0.001241344               0.005854990               0.001644533              -0.001197376               0.002350769               0.001153393               0.000000000               0.000000000               0.000000000               0.000000000              -0.000874548               0.005829379               0.001463823              -0.001056626               0.002295315               0.001238689               0.000000000               0.000000000               0.000000000               0.000000000              -0.000519748               0.005756589               0.001289029              -0.000914477               0.002223669               0.001309192               0.000000000               0.000000000               0.000000000               0.000000000              -0.000179561               0.005646940               0.001111526              -0.000773201               0.002140028               0.001366827               0.000000000               0.000000000               0.000000000               0.000000000               0.000132531               0.005513405               0.000926359              -0.000639475               0.002050942               0.001411466               0.000000000               0.000000000               0.000000000               0.000000000               0.000399195               0.005370532               0.000724808              -0.000521617               0.001964032               0.001442414               0.000000000               0.000000000               0.000000000               0.000000000               0.000601430               0.005231449               0.000504357              -0.000428394               0.001886597               0.001458203               0.000000000               0.000000000               0.000000000               0.000000000               0.000716544               0.005108499               0.000261805              -0.000369858               0.001826102               0.001456244               0.000000000               0.000000000               0.000000000               0.000000000               0.000743346               0.005047334               0.000133403              -0.000352161               0.001799815               0.001447654               0.000000000               0.000000000               0.000000000               0.000000000              -0.008460914              -0.000465293              -0.000821323              -0.003114679               0.000883122              -0.002231557               0.000000000               0.000000000               0.000000000               0.000000000              -0.005920480               0.000848499               0.000685163              -0.002326240               0.001058239              -0.001268001               0.000000000               0.000000000               0.000000000               0.000000000              -0.004219591               0.002022773               0.002024272              -0.001835190               0.001285978              -0.000549212               0.000000000               0.000000000               0.000000000               0.000000000              -0.003270517               0.003009170               0.002361796              -0.001602587               0.001537241              -0.000065347               0.000000000               0.000000000               0.000000000               0.000000000              -0.002645135               0.003751085               0.002349460              -0.001460809               0.001737284               0.000276475               0.000000000               0.000000000               0.000000000               0.000000000              -0.002163266               0.004291754               0.002211472              -0.001347692               0.001879800               0.000532108               0.000000000               0.000000000               0.000000000               0.000000000              -0.001743229               0.004682408               0.002027504              -0.001239010               0.001973790               0.000734780               0.000000000               0.000000000               0.000000000               0.000000000              -0.001347296               0.004964791               0.001837240              -0.001125833               0.002030191               0.000904358               0.000000000               0.000000000               0.000000000               0.000000000              -0.000973434               0.005158868               0.001660789              -0.001009895               0.002056236               0.001046342               0.000000000               0.000000000               0.000000000               0.000000000              -0.000614024               0.005274463               0.001502987              -0.000889565               0.002054658               0.001165093               0.000000000               0.000000000               0.000000000               0.000000000              -0.000259245               0.005328025               0.001354936              -0.000763219               0.002030396               0.001267178               0.000000000               0.000000000               0.000000000               0.000000000               0.000097994               0.005335689               0.001200599              -0.000630212               0.001988616               0.001358403               0.000000000               0.000000000               0.000000000               0.000000000               0.000449418               0.005307195               0.001029535              -0.000494867               0.001934003               0.001439136               0.000000000               0.000000000               0.000000000               0.000000000               0.000784464               0.005248521               0.000835629              -0.000361891               0.001870120               0.001508229               0.000000000               0.000000000               0.000000000               0.000000000               0.001092571               0.005170627               0.000607287              -0.000236614               0.001802396               0.001565783               0.000000000               0.000000000               0.000000000               0.000000000               0.001349696               0.005087035               0.000327502              -0.000129743               0.001738909               0.001609166               0.000000000               0.000000000               0.000000000               0.000000000               0.001489732               0.005055121               0.000179095              -0.000073241               0.001709437               0.001636196               0.000000000               0.000000000               0.000000000               0.000000000              -0.010046322              -0.000858233              -0.000798381              -0.003660089               0.000933946              -0.002726144               0.000000000               0.000000000               0.000000000               0.000000000              -0.006755955               0.000066736               0.000389885              -0.002541823               0.000869513              -0.001672309               0.000000000               0.000000000               0.000000000               0.000000000              -0.004347290               0.000824270               0.001476911              -0.001733266               0.000852505              -0.000880760               0.000000000               0.000000000               0.000000000               0.000000000              -0.003080870               0.001727534               0.001800279              -0.001371266               0.001032925              -0.000338341               0.000000000               0.000000000               0.000000000               0.000000000              -0.002318721               0.002523457               0.001836193              -0.001184951               0.001236126               0.000051176               0.000000000               0.000000000               0.000000000               0.000000000              -0.001793216               0.003171284               0.001760392              -0.001068865               0.001413371               0.000344507               0.000000000               0.000000000               0.000000000               0.000000000              -0.001376813               0.003688479               0.001637462              -0.000977363               0.001555268               0.000577905               0.000000000               0.000000000               0.000000000               0.000000000              -0.001003849               0.004105330               0.001499389              -0.000889608               0.001664965               0.000775357               0.000000000               0.000000000               0.000000000               0.000000000              -0.000647929               0.004433352               0.001368039              -0.000797141               0.001743483               0.000946342               0.000000000               0.000000000               0.000000000               0.000000000              -0.000297418               0.004676135               0.001253263              -0.000696048               0.001790712               0.001094664               0.000000000               0.000000000               0.000000000               0.000000000               0.000053744               0.004846346               0.001146398              -0.000585638               0.001810645               0.001225007               0.000000000               0.000000000               0.000000000               0.000000000               0.000418021               0.004970073               0.001033583              -0.000464501               0.001811508               0.001347007               0.000000000               0.000000000               0.000000000               0.000000000               0.000804727               0.005051856               0.000905068              -0.000329709               0.001793838               0.001464129               0.000000000               0.000000000               0.000000000               0.000000000               0.001210707               0.005084005               0.000754796              -0.000181485               0.001755146               0.001573661               0.000000000               0.000000000               0.000000000               0.000000000               0.001636645               0.005079601               0.000568350              -0.000021209               0.001700253               0.001679044               0.000000000               0.000000000               0.000000000               0.000000000               0.002081957               0.005050058               0.000317525               0.000149475               0.001633511               0.001782986               0.000000000               0.000000000               0.000000000               0.000000000               0.002393848               0.005060866               0.000183894               0.000265082               0.001598578               0.001863660               0.000000000               0.000000000               0.000000000               0.000000000              -0.011112844              -0.001030780              -0.000488008              -0.004038466               0.001002555              -0.003035911               0.000000000               0.000000000               0.000000000               0.000000000              -0.007334524              -0.000400071               0.000167440              -0.002700436               0.000766783              -0.001933653               0.000000000               0.000000000               0.000000000               0.000000000              -0.004437725               0.000042557               0.000778066              -0.001669465               0.000570670              -0.001098795               0.000000000               0.000000000               0.000000000               0.000000000              -0.002936440               0.000850883               0.000976217              -0.001207524               0.000686131              -0.000521393               0.000000000               0.000000000               0.000000000               0.000000000              -0.002062027               0.001655568               0.001011190              -0.000980204               0.000878584              -0.000101620               0.000000000               0.000000000               0.000000000               0.000000000              -0.001495762               0.002362442               0.000980074              -0.000856214               0.001072877               0.000216663               0.000000000               0.000000000               0.000000000               0.000000000              -0.001075402               0.002960504               0.000918709              -0.000773337               0.001244603               0.000471266               0.000000000               0.000000000               0.000000000               0.000000000              -0.000715460               0.003463957               0.000845799              -0.000701291               0.001388404               0.000687114               0.000000000               0.000000000               0.000000000               0.000000000              -0.000372706               0.003880135               0.000777090              -0.000624780               0.001501625               0.000876845               0.000000000               0.000000000               0.000000000               0.000000000              -0.000034041               0.004213523               0.000716680              -0.000539455               0.001584312               0.001044857               0.000000000               0.000000000               0.000000000               0.000000000               0.000309917               0.004472561               0.000660261              -0.000442851               0.001638455               0.001195605               0.000000000               0.000000000               0.000000000               0.000000000               0.000677650               0.004679578               0.000602704              -0.000330828               0.001670120               0.001339292               0.000000000               0.000000000               0.000000000               0.000000000               0.001086696               0.004844305               0.000536386              -0.000198027               0.001680761               0.001482734               0.000000000               0.000000000               0.000000000               0.000000000               0.001546641               0.004954766               0.000455343              -0.000039356               0.001664691               0.001625335               0.000000000               0.000000000               0.000000000               0.000000000               0.002069568               0.005011875               0.000352314               0.000149602               0.001620741               0.001770343               0.000000000               0.000000000               0.000000000               0.000000000               0.002677159               0.005023052               0.000204297               0.000376049               0.001548984               0.001925033               0.000000000               0.000000000               0.000000000               0.000000000               0.003150723               0.005069349               0.000124636               0.000547847               0.001507150               0.002054997               0.000000000               0.000000000               0.000000000               0.000000000              -0.011489680              -0.001073916              -0.000000000              -0.004174388               0.001033484              -0.003140904               0.000000000               0.000000000               0.000000000               0.000000000              -0.007543064              -0.000553500              -0.000000000              -0.002759460               0.000735315              -0.002024145               0.000000000               0.000000000               0.000000000               0.000000000              -0.004470421              -0.000228528               0.000000000              -0.001647841               0.000473101              -0.001174740               0.000000000               0.000000000               0.000000000               0.000000000              -0.002882545               0.000539483              -0.000000000              -0.001148388               0.000562620              -0.000585769               0.000000000               0.000000000               0.000000000               0.000000000              -0.001964940               0.001342488              -0.000000000              -0.000904662               0.000749045              -0.000155617               0.000000000               0.000000000               0.000000000               0.000000000              -0.001381742               0.002067312              -0.000000000              -0.000776566               0.000947952               0.000171387               0.000000000               0.000000000               0.000000000               0.000000000              -0.000961345               0.002690663              -0.000000000              -0.000696836               0.001129157               0.000432322               0.000000000               0.000000000               0.000000000               0.000000000              -0.000603203               0.003223196              -0.000000000              -0.000629099               0.001284088               0.000654988               0.000000000               0.000000000               0.000000000               0.000000000              -0.000265271               0.003670721              -0.000000000              -0.000558315               0.001409667               0.000851351               0.000000000               0.000000000               0.000000000               0.000000000               0.000067201               0.004039694              -0.000000000              -0.000479760               0.001506471               0.001026711               0.000000000               0.000000000               0.000000000               0.000000000               0.000409287               0.004335084              -0.000000000              -0.000388402               0.001574481               0.001186079               0.000000000               0.000000000               0.000000000               0.000000000               0.000779794               0.004574788              -0.000000000              -0.000279425               0.001618056               0.001338631               0.000000000               0.000000000               0.000000000               0.000000000               0.001196714               0.004771789              -0.000000000              -0.000147706               0.001639816               0.001492110               0.000000000               0.000000000               0.000000000               0.000000000               0.001675645               0.004910901               0.000000000               0.000014504               0.001632116               0.001646620               0.000000000               0.000000000               0.000000000               0.000000000               0.002236569               0.004989656               0.000000000               0.000215004               0.001591534               0.001806538               0.000000000               0.000000000               0.000000000               0.000000000               0.002907837               0.005013138               0.000000000               0.000463792               0.001516432               0.001980224               0.000000000               0.000000000               0.000000000               0.000000000               0.003447414               0.005071132              -0.000000000               0.000658882               0.001470733               0.002129615               0.000000000               0.000000000               0.000000000               0.000000000               0.002206894               0.023872614              -0.000000000              -0.002156486               0.008676287               0.006519801               0.000000000               0.000000000               0.000000000               0.000000000               0.002202779               0.018661830              -0.000000000              -0.001506683               0.006722775               0.005216092               0.000000000               0.000000000               0.000000000               0.000000000               0.002900792               0.014417707              -0.000000000              -0.000714415               0.005043993               0.004329578               0.000000000               0.000000000               0.000000000               0.000000000               0.002781578               0.012035803               0.000000000              -0.000461383               0.004165689               0.003704306               0.000000000               0.000000000               0.000000000               0.000000000               0.002420946               0.010543956              -0.000000000              -0.000410139               0.003651330               0.003241191               0.000000000               0.000000000               0.000000000               0.000000000               0.002024525               0.009520140               0.000000000              -0.000430820               0.003316955               0.002886135               0.000000000               0.000000000               0.000000000               0.000000000               0.001649427               0.008761479               0.000000000              -0.000476648               0.003079346               0.002602698               0.000000000               0.000000000               0.000000000               0.000000000               0.001311200               0.008154175               0.000000000              -0.000527571               0.002893888               0.002366317               0.000000000               0.000000000               0.000000000               0.000000000               0.001016742               0.007636705               0.000000000              -0.000573309               0.002736646               0.002163337               0.000000000               0.000000000               0.000000000               0.000000000               0.000770455               0.007167804               0.000000000              -0.000607054               0.002591595               0.001984542               0.000000000               0.000000000               0.000000000               0.000000000               0.000571282               0.006719739               0.000000000              -0.000625735               0.002448469               0.001822734               0.000000000               0.000000000               0.000000000               0.000000000               0.000410006               0.006272723              -0.000000000              -0.000630337               0.002300999               0.001670662               0.000000000               0.000000000               0.000000000               0.000000000               0.000275147               0.005814480               0.000000000              -0.000623628               0.002146017               0.001522388               0.000000000               0.000000000               0.000000000               0.000000000               0.000158300               0.005332793               0.000000000              -0.000607235               0.001979992               0.001372756               0.000000000               0.000000000               0.000000000               0.000000000               0.000068313               0.004804413               0.000000000              -0.000574933               0.001793099               0.001218167               0.000000000               0.000000000               0.000000000               0.000000000               0.000019249               0.004203961               0.000000000              -0.000518276               0.001574065               0.001055789               0.000000000               0.000000000               0.000000000               0.000000000              -0.000043230               0.003741212              -0.000000000              -0.000483861               0.001408345               0.000924484               0.000000000               0.000000000               0.000000000               0.000000000               0.002285044               0.023381983              -0.001630500              -0.002065852               0.008482534               0.006416682               0.000000000               0.000000000               0.000000000               0.000000000               0.002157816               0.018336175              -0.000816907              -0.001482837               0.006606276               0.005123439               0.000000000               0.000000000               0.000000000               0.000000000               0.002720510               0.014268373              -0.000002820              -0.000763353               0.005010528               0.004247174               0.000000000               0.000000000               0.000000000               0.000000000               0.002544431               0.011974660               0.000339715              -0.000542670               0.004172403               0.003629734               0.000000000               0.000000000               0.000000000               0.000000000               0.002169985               0.010528555               0.000472653              -0.000502324               0.003676925               0.003174601               0.000000000               0.000000000               0.000000000               0.000000000               0.001781228               0.009529175               0.000515613              -0.000523185               0.003350755               0.002827570               0.000000000               0.000000000               0.000000000               0.000000000               0.001425198               0.008778343               0.000519204              -0.000562842               0.003113699               0.002550857               0.000000000               0.000000000               0.000000000               0.000000000               0.001111056               0.008171800               0.000505397              -0.000604828               0.002925515               0.002320688               0.000000000               0.000000000               0.000000000               0.000000000               0.000839482               0.007650437               0.000483103              -0.000641497               0.002763952               0.002122455               0.000000000               0.000000000               0.000000000               0.000000000               0.000614274               0.007178807               0.000454247              -0.000666997               0.002615244               0.001948247               0.000000000               0.000000000               0.000000000               0.000000000               0.000434046               0.006731846               0.000420266              -0.000678712               0.002470164               0.001791452               0.000000000               0.000000000               0.000000000               0.000000000               0.000286903               0.006287966               0.000383178              -0.000678405               0.002322103               0.001643698               0.000000000               0.000000000               0.000000000               0.000000000               0.000168952               0.005833752               0.000344344              -0.000665860               0.002166518               0.001500657               0.000000000               0.000000000               0.000000000               0.000000000               0.000078272               0.005355737               0.000295733              -0.000640113               0.001998599               0.001358485               0.000000000               0.000000000               0.000000000               0.000000000               0.000017953               0.004839204               0.000228003              -0.000598167               0.001812441               0.001214274               0.000000000               0.000000000               0.000000000               0.000000000              -0.000003541               0.004270348               0.000129912              -0.000535120               0.001601809               0.001066688               0.000000000               0.000000000               0.000000000               0.000000000              -0.000050313               0.003842017               0.000081865              -0.000499118               0.001447032               0.000947914               0.000000000               0.000000000               0.000000000               0.000000000               0.002471811               0.021962774              -0.003028763              -0.001818415               0.007926989               0.006108575               0.000000000               0.000000000               0.000000000               0.000000000               0.002003584               0.017404437              -0.001513057              -0.001424208               0.006276157               0.004851949               0.000000000               0.000000000               0.000000000               0.000000000               0.002202668               0.013843839              -0.000013529              -0.000904477               0.004916059               0.004011582               0.000000000               0.000000000               0.000000000               0.000000000               0.001890787               0.011800021               0.000599721              -0.000765956               0.004188620               0.003422664               0.000000000               0.000000000               0.000000000               0.000000000               0.001488794               0.010480305               0.000832233              -0.000751739               0.003743980               0.002992241               0.000000000               0.000000000               0.000000000               0.000000000               0.001127809               0.009541167               0.000902138              -0.000769716               0.003436929               0.002667213               0.000000000               0.000000000               0.000000000               0.000000000               0.000825639               0.008812664               0.000902205              -0.000791967               0.003201514               0.002409547               0.000000000               0.000000000               0.000000000               0.000000000               0.000572355               0.008208210               0.000871727              -0.000811391               0.003006506               0.002195115               0.000000000               0.000000000               0.000000000               0.000000000               0.000365222               0.007679765               0.000828322              -0.000823011               0.002834233               0.002011222               0.000000000               0.000000000               0.000000000               0.000000000               0.000201410               0.007203213               0.000777528              -0.000824871               0.002676004               0.001851133               0.000000000               0.000000000               0.000000000               0.000000000               0.000078672               0.006756881               0.000718816              -0.000815106               0.002523973               0.001708867               0.000000000               0.000000000               0.000000000               0.000000000              -0.000010599               0.006321243               0.000653291              -0.000794128               0.002371769               0.001577641               0.000000000               0.000000000               0.000000000               0.000000000              -0.000069511               0.005879517               0.000581139              -0.000761004               0.002213487               0.001452483               0.000000000               0.000000000               0.000000000               0.000000000              -0.000093248               0.005423824               0.000492845              -0.000712944               0.002045571               0.001332627               0.000000000               0.000000000               0.000000000               0.000000000              -0.000083522               0.004956750               0.000377322              -0.000650913               0.001869205               0.001218292               0.000000000               0.000000000               0.000000000               0.000000000              -0.000049851               0.004479436               0.000214937              -0.000578622               0.001686005               0.001107382               0.000000000               0.000000000               0.000000000               0.000000000              -0.000065034               0.004145135               0.000133526              -0.000542528               0.001562541               0.001020012               0.000000000               0.000000000               0.000000000               0.000000000               0.002657448               0.019794418              -0.004019923              -0.001477758               0.007090659               0.005612901               0.000000000               0.000000000               0.000000000               0.000000000               0.001710273               0.016007200              -0.002011809              -0.001359545               0.005788862               0.004429316               0.000000000               0.000000000               0.000000000               0.000000000               0.001403967               0.013217485              -0.000055705              -0.001125695               0.004781016               0.003655321               0.000000000               0.000000000               0.000000000               0.000000000               0.000941543               0.011538568               0.000705754              -0.001089240               0.004209231               0.003119991               0.000000000               0.000000000               0.000000000               0.000000000               0.000539210               0.010393267               0.000978337              -0.001096952               0.003830038               0.002733086               0.000000000               0.000000000               0.000000000               0.000000000               0.000237238               0.009528060               0.001049795              -0.001102041               0.003543335               0.002441294               0.000000000               0.000000000               0.000000000               0.000000000               0.000020998               0.008829813               0.001039856              -0.001095850               0.003308525               0.002212675               0.000000000               0.000000000               0.000000000               0.000000000              -0.000136148               0.008232446               0.000996979              -0.001080109               0.003104157               0.002024049               0.000000000               0.000000000               0.000000000               0.000000000              -0.000239098               0.007705440               0.000944519              -0.001052839               0.002919401               0.001866561               0.000000000               0.000000000               0.000000000               0.000000000              -0.000300471               0.007227326               0.000887059              -0.001016090               0.002747781               0.001731691               0.000000000               0.000000000               0.000000000               0.000000000              -0.000331084               0.006779555               0.000819642              -0.000971599               0.002583695               0.001612096               0.000000000               0.000000000               0.000000000               0.000000000              -0.000329972               0.006350179               0.000740496              -0.000917510               0.002422542               0.001505032               0.000000000               0.000000000               0.000000000               0.000000000              -0.000298969               0.005929179               0.000648001              -0.000853259               0.002260793               0.001407534               0.000000000               0.000000000               0.000000000               0.000000000              -0.000243542               0.005517409               0.000539466              -0.000781002               0.002099452               0.001318450               0.000000000               0.000000000               0.000000000               0.000000000              -0.000166011               0.005131018               0.000404048              -0.000703630               0.001944865               0.001241236               0.000000000               0.000000000               0.000000000               0.000000000              -0.000082086               0.004785299               0.000224473              -0.000628943               0.001804732               0.001175788               0.000000000               0.000000000               0.000000000               0.000000000              -0.000064786               0.004574121               0.000134104              -0.000596058               0.001723378               0.001127320               0.000000000               0.000000000               0.000000000               0.000000000               0.002698892               0.017159085              -0.004517195              -0.001132802               0.006097237               0.004964436               0.000000000               0.000000000               0.000000000               0.000000000               0.001257923               0.014350083              -0.002292219              -0.001322037               0.005223992               0.003901955               0.000000000               0.000000000               0.000000000               0.000000000               0.000425963               0.012484471              -0.000159693              -0.001400819               0.004628388               0.003227569               0.000000000               0.000000000               0.000000000               0.000000000              -0.000140526               0.011208448               0.000620525              -0.001453750               0.004220695               0.002766945               0.000000000               0.000000000               0.000000000               0.000000000              -0.000489845               0.010240529               0.000881419              -0.001463754               0.003901394               0.002437639               0.000000000               0.000000000               0.000000000               0.000000000              -0.000682771               0.009456342               0.000940435              -0.001438078               0.003631442               0.002193364               0.000000000               0.000000000               0.000000000               0.000000000              -0.000775037               0.008793978               0.000927119              -0.001389883               0.003394591               0.002004708               0.000000000               0.000000000               0.000000000               0.000000000              -0.000806346               0.008211342               0.000887887              -0.001328794               0.003180018               0.001851224               0.000000000               0.000000000               0.000000000               0.000000000              -0.000788120               0.007688543               0.000843116              -0.001256610               0.002981692               0.001725082               0.000000000               0.000000000               0.000000000               0.000000000              -0.000734068               0.007208525               0.000792697              -0.001176338               0.002794931               0.001618592               0.000000000               0.000000000               0.000000000               0.000000000              -0.000654187               0.006757455               0.000731643              -0.001089999               0.002615796               0.001525796               0.000000000               0.000000000               0.000000000               0.000000000              -0.000550928               0.006331142               0.000656164              -0.000997989               0.002443022               0.001445034               0.000000000               0.000000000               0.000000000               0.000000000              -0.000430423               0.005933985               0.000562786              -0.000903155               0.002279027               0.001375872               0.000000000               0.000000000               0.000000000               0.000000000              -0.000303620               0.005577446               0.000454355              -0.000811036               0.002129476               0.001318439               0.000000000               0.000000000               0.000000000               0.000000000              -0.000182873               0.005277003               0.000327511              -0.000728201               0.002001717               0.001273516               0.000000000               0.000000000               0.000000000               0.000000000              -0.000083283               0.005050927               0.000173957              -0.000662595               0.001904491               0.001241895               0.000000000               0.000000000               0.000000000               0.000000000              -0.000050802               0.004942222               0.000096362              -0.000636827               0.001859667               0.001222840               0.000000000               0.000000000               0.000000000               0.000000000               0.002470370               0.014332944              -0.004536211              -0.000865231               0.005066010               0.004200778               0.000000000               0.000000000               0.000000000               0.000000000               0.000645801               0.012612829              -0.002389341              -0.001334426               0.004649042               0.003314616               0.000000000               0.000000000               0.000000000               0.000000000              -0.000614544               0.011695814              -0.000357270              -0.001692427               0.004462708               0.002770281               0.000000000               0.000000000               0.000000000               0.000000000              -0.001189415               0.010795420               0.000342723              -0.001795454               0.004196922               0.002401468               0.000000000               0.000000000               0.000000000               0.000000000              -0.001418846               0.009986951               0.000572610              -0.001780432               0.003922428               0.002141996               0.000000000               0.000000000               0.000000000               0.000000000              -0.001460218               0.009279021               0.000630631              -0.001707455               0.003662128               0.001954672               0.000000000               0.000000000               0.000000000               0.000000000              -0.001406360               0.008653075               0.000633703              -0.001609015               0.003420668               0.001811653               0.000000000               0.000000000               0.000000000               0.000000000              -0.001304164               0.008090854               0.000615738              -0.001500414               0.003197062               0.001696648               0.000000000               0.000000000               0.000000000               0.000000000              -0.001169766               0.007575571               0.000592121              -0.001385605               0.002987033               0.001601428               0.000000000               0.000000000               0.000000000               0.000000000              -0.001006082               0.007095182               0.000561198              -0.001264175               0.002786429               0.001522253               0.000000000               0.000000000               0.000000000               0.000000000              -0.000821643               0.006640276               0.000518215              -0.001138148               0.002592786               0.001454638               0.000000000               0.000000000               0.000000000               0.000000000              -0.000631396               0.006220562               0.000459811              -0.001014341               0.002411614               0.001397273               0.000000000               0.000000000               0.000000000               0.000000000              -0.000448028               0.005852054               0.000383729              -0.000899515               0.002250503               0.001350988               0.000000000               0.000000000               0.000000000               0.000000000              -0.000283764               0.005548854               0.000295079              -0.000800016               0.002116272               0.001316255               0.000000000               0.000000000               0.000000000               0.000000000              -0.000152400               0.005318046               0.000195925              -0.000721904               0.002013299               0.001291395               0.000000000               0.000000000               0.000000000               0.000000000              -0.000062005               0.005167150               0.000093809              -0.000669144               0.001945414               0.001276270               0.000000000               0.000000000               0.000000000               0.000000000              -0.000032850               0.005106678               0.000047567              -0.000650652               0.001919093               0.001268441               0.000000000               0.000000000               0.000000000               0.000000000               0.001914569               0.011532387              -0.004162110              -0.000723587               0.004085285               0.003361698               0.000000000               0.000000000               0.000000000               0.000000000              -0.000092606               0.010911127              -0.002361828              -0.001398616               0.004103211               0.002704595               0.000000000               0.000000000               0.000000000               0.000000000              -0.001603619               0.010870099              -0.000656765              -0.001960115               0.004276701               0.002316587               0.000000000               0.000000000               0.000000000               0.000000000              -0.002073328               0.010287540              -0.000080402              -0.002063435               0.004116957               0.002053522               0.000000000               0.000000000               0.000000000               0.000000000              -0.002126033               0.009618094               0.000131220              -0.001999519               0.003872506               0.001872987               0.000000000               0.000000000               0.000000000               0.000000000              -0.001997422               0.008976332               0.000214196              -0.001871070               0.003615771               0.001744701               0.000000000               0.000000000               0.000000000               0.000000000              -0.001800049               0.008385377               0.000255193              -0.001723186               0.003369493               0.001646307               0.000000000               0.000000000               0.000000000               0.000000000              -0.001578348               0.007842298               0.000275825              -0.001572164               0.003138128               0.001565964               0.000000000               0.000000000               0.000000000               0.000000000              -0.001341952               0.007340622               0.000283419              -0.001420806               0.002920452               0.001499645               0.000000000               0.000000000               0.000000000               0.000000000              -0.001090258               0.006864479               0.000277348              -0.001266904               0.002710438               0.001443534               0.000000000               0.000000000               0.000000000               0.000000000              -0.000833036               0.006419435               0.000258236              -0.001114815               0.002511395               0.001396580               0.000000000               0.000000000               0.000000000               0.000000000              -0.000592103               0.006026642               0.000227074              -0.000975366               0.002333983               0.001358616               0.000000000               0.000000000               0.000000000               0.000000000              -0.000384430               0.005701667               0.000181232              -0.000856868               0.002186159               0.001329292               0.000000000               0.000000000               0.000000000               0.000000000              -0.000220654               0.005449590               0.000126952              -0.000763942               0.002071159               0.001307217               0.000000000               0.000000000               0.000000000               0.000000000              -0.000105828               0.005268569               0.000072373              -0.000698255               0.001988924               0.001290669               0.000000000               0.000000000               0.000000000               0.000000000              -0.000037224               0.005152705               0.000027514              -0.000658045               0.001936899               0.001278854               0.000000000               0.000000000               0.000000000               0.000000000              -0.000023278               0.005098491               0.000014346              -0.000646039               0.001914826               0.001268788               0.000000000               0.000000000               0.000000000               0.000000000               0.001053593               0.008934713              -0.003497371              -0.000721743               0.003218788               0.002497044               0.000000000               0.000000000               0.000000000               0.000000000              -0.000916199               0.009342378              -0.002256612              -0.001511370               0.003617884               0.002106515               0.000000000               0.000000000               0.000000000               0.000000000              -0.002447729               0.010022596              -0.001039543              -0.002170718               0.004064405               0.001893687               0.000000000               0.000000000               0.000000000               0.000000000              -0.002717675               0.009691350              -0.000574503              -0.002230542               0.003973932               0.001743390               0.000000000               0.000000000               0.000000000               0.000000000              -0.002568866               0.009146168              -0.000349791              -0.002106591               0.003750889               0.001644298               0.000000000               0.000000000               0.000000000               0.000000000              -0.002278871               0.008571874              -0.000220896              -0.001926056               0.003499281               0.001573225               0.000000000               0.000000000               0.000000000               0.000000000              -0.001958616               0.008018985              -0.000131102              -0.001736850               0.003251918               0.001515068               0.000000000               0.000000000               0.000000000               0.000000000              -0.001635753               0.007498966              -0.000062992              -0.001550774               0.003016555               0.001465781               0.000000000               0.000000000               0.000000000               0.000000000              -0.001314537               0.007012200              -0.000015494              -0.001369473               0.002793868               0.001424394               0.000000000               0.000000000               0.000000000               0.000000000              -0.001002597               0.006554898               0.000009054              -0.001195333               0.002583388               0.001388055               0.000000000               0.000000000               0.000000000               0.000000000              -0.000711266               0.006144642               0.000021413              -0.001034803               0.002393128               0.001358325               0.000000000               0.000000000               0.000000000               0.000000000              -0.000463215               0.005799406               0.000027855              -0.000898629               0.002232659               0.001334030               0.000000000               0.000000000               0.000000000               0.000000000              -0.000272064               0.005526667               0.000023666              -0.000792855               0.002106489               0.001313634               0.000000000               0.000000000               0.000000000               0.000000000              -0.000138486               0.005325547               0.000012766              -0.000717624               0.002014373               0.001296749               0.000000000               0.000000000               0.000000000               0.000000000              -0.000055943               0.005185869               0.000004047              -0.000669211               0.001951676               0.001282465               0.000000000               0.000000000               0.000000000               0.000000000              -0.000015846               0.005094901               0.000001190              -0.000642803               0.001912551               0.001269748               0.000000000               0.000000000               0.000000000               0.000000000              -0.000014727               0.005049370               0.000006338              -0.000636692               0.001895337               0.001258645               0.000000000               0.000000000               0.000000000               0.000000000               0.000005546               0.006735679              -0.002665732              -0.000839880               0.002525163               0.001685283               0.000000000               0.000000000               0.000000000               0.000000000              -0.001719946               0.007946040              -0.002124832              -0.001638232               0.003194730               0.001556499               0.000000000               0.000000000               0.000000000               0.000000000              -0.003093463               0.009195704              -0.001486171              -0.002309506               0.003835039               0.001525533               0.000000000               0.000000000               0.000000000               0.000000000              -0.003145362               0.009127203              -0.001094827              -0.002320405               0.003815839               0.001495433               0.000000000               0.000000000               0.000000000               0.000000000              -0.002831812               0.008727209              -0.000834704              -0.002152825               0.003626649               0.001473824               0.000000000               0.000000000               0.000000000               0.000000000              -0.002416666               0.008238295              -0.000650435              -0.001936032               0.003391415               0.001455383               0.000000000               0.000000000               0.000000000               0.000000000              -0.002001981               0.007740649              -0.000509177              -0.001718320               0.003152964               0.001434644               0.000000000               0.000000000               0.000000000               0.000000000              -0.001603627               0.007259265              -0.000394246              -0.001508765               0.002922652               0.001413888               0.000000000               0.000000000               0.000000000               0.000000000              -0.001219412               0.006798377              -0.000301869              -0.001307073               0.002701794               0.001394721               0.000000000               0.000000000               0.000000000               0.000000000              -0.000865724               0.006363115              -0.000233117              -0.001120033               0.002494362               0.001374329               0.000000000               0.000000000               0.000000000               0.000000000              -0.000559147               0.005983198              -0.000177700              -0.000957577               0.002313572               0.001355994               0.000000000               0.000000000               0.000000000               0.000000000              -0.000322000               0.005671526              -0.000126739              -0.000829688               0.002167053               0.001337364               0.000000000               0.000000000               0.000000000               0.000000000              -0.000157482               0.005429535              -0.000086290              -0.000737746               0.002055742               0.001317996               0.000000000               0.000000000               0.000000000               0.000000000              -0.000055532               0.005251292              -0.000053059              -0.000677234               0.001976158               0.001298924               0.000000000               0.000000000               0.000000000               0.000000000              -0.000005491               0.005130727              -0.000024412              -0.000643398               0.001924691               0.001281293               0.000000000               0.000000000               0.000000000               0.000000000               0.000004433               0.005054562              -0.000003018              -0.000630156               0.001894889               0.001264733               0.000000000               0.000000000               0.000000000               0.000000000              -0.000001044               0.005023450               0.000006375              -0.000628321               0.001883907               0.001255586               0.000000000               0.000000000               0.000000000               0.000000000              -0.001222172               0.004696113              -0.001779740              -0.001045327               0.001913797               0.000868470               0.000000000               0.000000000               0.000000000               0.000000000              -0.002380837               0.006350190              -0.001971181              -0.001686584               0.002678903               0.000992319               0.000000000               0.000000000               0.000000000               0.000000000              -0.003452296               0.008005336              -0.001953083              -0.002295273               0.003433509               0.001138236               0.000000000               0.000000000               0.000000000               0.000000000              -0.003388411               0.008309585              -0.001652721              -0.002309347               0.003539616               0.001230269               0.000000000               0.000000000               0.000000000               0.000000000              -0.003019639               0.008165886              -0.001365202              -0.002153096               0.003439633               0.001286538               0.000000000               0.000000000               0.000000000               0.000000000              -0.002566346               0.007858788              -0.001126180              -0.001944724               0.003267811               0.001323087               0.000000000               0.000000000               0.000000000               0.000000000              -0.002118185               0.007495873              -0.000932287              -0.001731299               0.003075699               0.001344400               0.000000000               0.000000000               0.000000000               0.000000000              -0.001699903               0.007122413              -0.000771057              -0.001527762               0.002883368               0.001355606               0.000000000               0.000000000               0.000000000               0.000000000              -0.001303858               0.006749815              -0.000633114              -0.001332670               0.002694139               0.001361469               0.000000000               0.000000000               0.000000000               0.000000000              -0.000937538               0.006382114              -0.000512493              -0.001149338               0.002510463               0.001361125               0.000000000               0.000000000               0.000000000               0.000000000              -0.000617243               0.006036751              -0.000403628              -0.000986058               0.002340916               0.001354858               0.000000000               0.000000000               0.000000000               0.000000000              -0.000358929               0.005735701              -0.000304082              -0.000851559               0.002195734               0.001344175               0.000000000               0.000000000               0.000000000               0.000000000              -0.000174141               0.005487729              -0.000217303              -0.000751267               0.002079647               0.001328380               0.000000000               0.000000000               0.000000000               0.000000000              -0.000056413               0.005293970              -0.000138846              -0.000682899               0.001992272               0.001309373               0.000000000               0.000000000               0.000000000               0.000000000               0.000004637               0.005153595              -0.000070280              -0.000642459               0.001932001               0.001289542               0.000000000               0.000000000               0.000000000               0.000000000               0.000020906               0.005059520              -0.000022680              -0.000624599               0.001894689               0.001270091               0.000000000               0.000000000               0.000000000               0.000000000               0.000018662               0.005025278              -0.000004792              -0.000621160               0.001882129               0.001260969               0.000000000               0.000000000               0.000000000               0.000000000              -0.002794594               0.002854492              -0.000898102              -0.001404782               0.001419747               0.000014966               0.000000000               0.000000000               0.000000000               0.000000000              -0.003118961               0.004753822              -0.001740723              -0.001763834               0.002172536               0.000408701               0.000000000               0.000000000               0.000000000               0.000000000              -0.003708818               0.006629137              -0.002317394              -0.002219444               0.002949504               0.000730060               0.000000000               0.000000000               0.000000000               0.000000000              -0.003540275               0.007281783              -0.002179485              -0.002237821               0.003173176               0.000935355               0.000000000               0.000000000               0.000000000               0.000000000              -0.003153480               0.007431157              -0.001906526              -0.002111445               0.003180842               0.001069397               0.000000000               0.000000000               0.000000000               0.000000000              -0.002694001               0.007352371              -0.001638194              -0.001929292               0.003093863               0.001164570               0.000000000               0.000000000               0.000000000               0.000000000              -0.002233398               0.007165560              -0.001400772              -0.001733215               0.002966234               0.001233019               0.000000000               0.000000000               0.000000000               0.000000000              -0.001806059               0.006928388              -0.001198581              -0.001543317               0.002823878               0.001280561               0.000000000               0.000000000               0.000000000               0.000000000              -0.001407972               0.006665231              -0.001022165              -0.001361140               0.002675435               0.001314294               0.000000000               0.000000000               0.000000000               0.000000000              -0.001034184               0.006392526              -0.000859112              -0.001186882               0.002526448               0.001339566               0.000000000               0.000000000               0.000000000               0.000000000              -0.000695138               0.006108430              -0.000706225              -0.001024228               0.002377532               0.001353304               0.000000000               0.000000000               0.000000000               0.000000000              -0.000400307               0.005832251              -0.000562090              -0.000879144               0.002237112               0.001357968               0.000000000               0.000000000               0.000000000               0.000000000              -0.000168961               0.005584068              -0.000427237              -0.000761367               0.002115126               0.001353759               0.000000000               0.000000000               0.000000000               0.000000000              -0.000009269               0.005374862              -0.000301020              -0.000675332               0.002016714               0.001341381               0.000000000               0.000000000               0.000000000               0.000000000               0.000080980               0.005207634              -0.000181804              -0.000620585               0.001942722               0.001322137               0.000000000               0.000000000               0.000000000               0.000000000               0.000106590               0.005087493              -0.000080702              -0.000595964               0.001894469               0.001298505               0.000000000               0.000000000               0.000000000               0.000000000               0.000094706               0.005034497              -0.000033016              -0.000593796               0.001876081               0.001282285               0.000000000               0.000000000               0.000000000               0.000000000              -0.004624940               0.001347220              -0.000097984              -0.001902752               0.001083317              -0.000819436               0.000000000               0.000000000               0.000000000               0.000000000              -0.003996689               0.003254145              -0.001416161              -0.001905523               0.001719877              -0.000185646               0.000000000               0.000000000               0.000000000               0.000000000              -0.003905997               0.005085546              -0.002464095              -0.002100438               0.002395310               0.000294872               0.000000000               0.000000000               0.000000000               0.000000000              -0.003549431               0.005974865              -0.002526192              -0.002077891               0.002684231               0.000606340               0.000000000               0.000000000               0.000000000               0.000000000              -0.003123519               0.006390425              -0.002324303              -0.001970119               0.002786826               0.000816707               0.000000000               0.000000000               0.000000000               0.000000000              -0.002670597               0.006548880              -0.002068237              -0.001820080               0.002789631               0.000969551               0.000000000               0.000000000               0.000000000               0.000000000              -0.002217013               0.006561916              -0.001815550              -0.001651616               0.002737822               0.001086206               0.000000000               0.000000000               0.000000000               0.000000000              -0.001788821               0.006490846              -0.001590733              -0.001482160               0.002657647               0.001175487               0.000000000               0.000000000               0.000000000               0.000000000              -0.001392476               0.006370093              -0.001393329              -0.001318437               0.002562822               0.001244385               0.000000000               0.000000000               0.000000000               0.000000000              -0.001018201               0.006214946              -0.001209378              -0.001158691               0.002457858               0.001299167               0.000000000               0.000000000               0.000000000               0.000000000              -0.000666917               0.006025567              -0.001032992              -0.001003288               0.002342931               0.001339644               0.000000000               0.000000000               0.000000000               0.000000000              -0.000348983               0.005814489              -0.000859504              -0.000857678               0.002224036               0.001366358               0.000000000               0.000000000               0.000000000               0.000000000              -0.000074495               0.005604441              -0.000687811              -0.000728489               0.002110958               0.001382469               0.000000000               0.000000000               0.000000000               0.000000000               0.000135044               0.005409478              -0.000514966              -0.000625542               0.002011655               0.001386113               0.000000000               0.000000000               0.000000000               0.000000000               0.000265114               0.005237550              -0.000339392              -0.000555275               0.001930924               0.001375650               0.000000000               0.000000000               0.000000000               0.000000000               0.000310368               0.005102792              -0.000166221              -0.000521460               0.001874734               0.001353274               0.000000000               0.000000000               0.000000000               0.000000000               0.000296545               0.005037567              -0.000077064              -0.000518490               0.001852002               0.001333512               0.000000000               0.000000000               0.000000000               0.000000000              -0.006580295               0.000245253               0.000509399              -0.002498265               0.000914500              -0.001583765               0.000000000               0.000000000               0.000000000               0.000000000              -0.004961506               0.001926940              -0.001044135              -0.002101429               0.001342780              -0.000758649               0.000000000               0.000000000               0.000000000               0.000000000              -0.004072154               0.003498532              -0.002366183              -0.001964370               0.001820954              -0.000143417               0.000000000               0.000000000               0.000000000               0.000000000              -0.003444354               0.004494019              -0.002604941              -0.001853382               0.002115784               0.000262402               0.000000000               0.000000000               0.000000000               0.000000000              -0.002936648               0.005112816              -0.002502780              -0.001740342               0.002284368               0.000544026               0.000000000               0.000000000               0.000000000               0.000000000              -0.002482582               0.005486927              -0.002295482              -0.001616831               0.002367900               0.000751069               0.000000000               0.000000000               0.000000000               0.000000000              -0.002047378               0.005702140              -0.002063700              -0.001480532               0.002394204               0.000913673               0.000000000               0.000000000               0.000000000               0.000000000              -0.001630553               0.005815846              -0.001842616              -0.001338435               0.002384740               0.001046305               0.000000000               0.000000000               0.000000000               0.000000000              -0.001241344               0.005854990              -0.001644533              -0.001197376               0.002350769               0.001153393               0.000000000               0.000000000               0.000000000               0.000000000              -0.000874548               0.005829379              -0.001463823              -0.001056626               0.002295315               0.001238689               0.000000000               0.000000000               0.000000000               0.000000000              -0.000519748               0.005756589              -0.001289029              -0.000914477               0.002223669               0.001309192               0.000000000               0.000000000               0.000000000               0.000000000              -0.000179561               0.005646940              -0.001111526              -0.000773201               0.002140028               0.001366827               0.000000000               0.000000000               0.000000000               0.000000000               0.000132531               0.005513405              -0.000926359              -0.000639475               0.002050942               0.001411466               0.000000000               0.000000000               0.000000000               0.000000000               0.000399195               0.005370532              -0.000724808              -0.000521617               0.001964032               0.001442414               0.000000000               0.000000000               0.000000000               0.000000000               0.000601430               0.005231449              -0.000504357              -0.000428394               0.001886597               0.001458203               0.000000000               0.000000000               0.000000000               0.000000000               0.000716544               0.005108499              -0.000261805              -0.000369858               0.001826102               0.001456244               0.000000000               0.000000000               0.000000000               0.000000000               0.000743346               0.005047334              -0.000133403              -0.000352161               0.001799815               0.001447654               0.000000000               0.000000000               0.000000000               0.000000000              -0.008460914              -0.000465293               0.000821323              -0.003114679               0.000883122              -0.002231557               0.000000000               0.000000000               0.000000000               0.000000000              -0.005920480               0.000848499              -0.000685163              -0.002326240               0.001058239              -0.001268001               0.000000000               0.000000000               0.000000000               0.000000000              -0.004219591               0.002022773              -0.002024272              -0.001835190               0.001285978              -0.000549212               0.000000000               0.000000000               0.000000000               0.000000000              -0.003270517               0.003009170              -0.002361796              -0.001602587               0.001537241              -0.000065347               0.000000000               0.000000000               0.000000000               0.000000000              -0.002645135               0.003751085              -0.002349460              -0.001460809               0.001737284               0.000276475               0.000000000               0.000000000               0.000000000               0.000000000              -0.002163266               0.004291754              -0.002211472              -0.001347692               0.001879800               0.000532108               0.000000000               0.000000000               0.000000000               0.000000000              -0.001743229               0.004682408              -0.002027504              -0.001239010               0.001973790               0.000734780               0.000000000               0.000000000               0.000000000               0.000000000              -0.001347296               0.004964791              -0.001837240              -0.001125833               0.002030191               0.000904358               0.000000000               0.000000000               0.000000000               0.000000000              -0.000973434               0.005158868              -0.001660789              -0.001009895               0.002056236               0.001046342               0.000000000               0.000000000               0.000000000               0.000000000              -0.000614024               0.005274463              -0.001502987              -0.000889565               0.002054658               0.001165093               0.000000000               0.000000000               0.000000000               0.000000000              -0.000259245               0.005328025              -0.001354936              -0.000763219               0.002030396               0.001267178               0.000000000               0.000000000               0.000000000               0.000000000               0.000097994               0.005335689              -0.001200599              -0.000630212               0.001988616               0.001358403               0.000000000               0.000000000               0.000000000               0.000000000               0.000449418               0.005307195              -0.001029535              -0.000494867               0.001934003               0.001439136               0.000000000               0.000000000               0.000000000               0.000000000               0.000784464               0.005248521              -0.000835629              -0.000361891               0.001870120               0.001508229               0.000000000               0.000000000               0.000000000               0.000000000               0.001092571               0.005170627              -0.000607287              -0.000236614               0.001802396               0.001565783               0.000000000               0.000000000               0.000000000               0.000000000               0.001349696               0.005087035              -0.000327502              -0.000129743               0.001738909               0.001609166               0.000000000               0.000000000               0.000000000               0.000000000               0.001489732               0.005055121              -0.000179095              -0.000073241               0.001709437               0.001636196               0.000000000               0.000000000               0.000000000               0.000000000              -0.010046322              -0.000858233               0.000798381              -0.003660089               0.000933946              -0.002726144               0.000000000               0.000000000               0.000000000               0.000000000              -0.006755955               0.000066736              -0.000389885              -0.002541823               0.000869513              -0.001672309               0.000000000               0.000000000               0.000000000               0.000000000              -0.004347290               0.000824270              -0.001476911              -0.001733266               0.000852505              -0.000880760               0.000000000               0.000000000               0.000000000               0.000000000              -0.003080870               0.001727534              -0.001800279              -0.001371266               0.001032925              -0.000338341               0.000000000               0.000000000               0.000000000               0.000000000              -0.002318721               0.002523457              -0.001836193              -0.001184951               0.001236126               0.000051176               0.000000000               0.000000000               0.000000000               0.000000000              -0.001793216               0.003171284              -0.001760392              -0.001068865               0.001413371               0.000344507               0.000000000               0.000000000               0.000000000               0.000000000              -0.001376813               0.003688479              -0.001637462              -0.000977363               0.001555268               0.000577905               0.000000000               0.000000000               0.000000000               0.000000000              -0.001003849               0.004105330              -0.001499389              -0.000889608               0.001664965               0.000775357               0.000000000               0.000000000               0.000000000               0.000000000              -0.000647929               0.004433352              -0.001368039              -0.000797141               0.001743483               0.000946342               0.000000000               0.000000000               0.000000000               0.000000000              -0.000297418               0.004676135              -0.001253263              -0.000696048               0.001790712               0.001094664               0.000000000               0.000000000               0.000000000               0.000000000               0.000053744               0.004846346              -0.001146398              -0.000585638               0.001810645               0.001225007               0.000000000               0.000000000               0.000000000               0.000000000               0.000418021               0.004970073              -0.001033583              -0.000464501               0.001811508               0.001347007               0.000000000               0.000000000               0.000000000               0.000000000               0.000804727               0.005051856              -0.000905068              -0.000329709               0.001793838               0.001464129               0.000000000               0.000000000               0.000000000               0.000000000               0.001210707               0.005084005              -0.000754796              -0.000181485               0.001755146               0.001573661               0.000000000               0.000000000               0.000000000               0.000000000               0.001636645               0.005079601              -0.000568350              -0.000021209               0.001700253               0.001679044               0.000000000               0.000000000               0.000000000               0.000000000               0.002081957               0.005050058              -0.000317525               0.000149475               0.001633511               0.001782986               0.000000000               0.000000000               0.000000000               0.000000000               0.002393848               0.005060866              -0.000183894               0.000265082               0.001598578               0.001863660               0.000000000               0.000000000               0.000000000               0.000000000              -0.011112844              -0.001030780               0.000488008              -0.004038466               0.001002555              -0.003035911               0.000000000               0.000000000               0.000000000               0.000000000              -0.007334524              -0.000400071              -0.000167440              -0.002700436               0.000766783              -0.001933653               0.000000000               0.000000000               0.000000000               0.000000000              -0.004437725               0.000042557              -0.000778066              -0.001669465               0.000570670              -0.001098795               0.000000000               0.000000000               0.000000000               0.000000000              -0.002936440               0.000850883              -0.000976217              -0.001207524               0.000686131              -0.000521393               0.000000000               0.000000000               0.000000000               0.000000000              -0.002062027               0.001655568              -0.001011190              -0.000980204               0.000878584              -0.000101620               0.000000000               0.000000000               0.000000000               0.000000000              -0.001495762               0.002362442              -0.000980074              -0.000856214               0.001072877               0.000216663               0.000000000               0.000000000               0.000000000               0.000000000              -0.001075402               0.002960504              -0.000918709              -0.000773337               0.001244603               0.000471266               0.000000000               0.000000000               0.000000000               0.000000000              -0.000715460               0.003463957              -0.000845799              -0.000701291               0.001388404               0.000687114               0.000000000               0.000000000               0.000000000               0.000000000              -0.000372706               0.003880135              -0.000777090              -0.000624780               0.001501625               0.000876845               0.000000000               0.000000000               0.000000000               0.000000000              -0.000034041               0.004213523              -0.000716680              -0.000539455               0.001584312               0.001044857               0.000000000               0.000000000               0.000000000               0.000000000               0.000309917               0.004472561              -0.000660261              -0.000442851               0.001638455               0.001195605               0.000000000               0.000000000               0.000000000               0.000000000               0.000677650               0.004679578              -0.000602704              -0.000330828               0.001670120               0.001339292               0.000000000               0.000000000               0.000000000               0.000000000               0.001086696               0.004844305              -0.000536386              -0.000198027               0.001680761               0.001482734               0.000000000               0.000000000               0.000000000               0.000000000               0.001546641               0.004954766              -0.000455343              -0.000039356               0.001664691               0.001625335               0.000000000               0.000000000               0.000000000               0.000000000               0.002069568               0.005011875              -0.000352314               0.000149602               0.001620741               0.001770343               0.000000000               0.000000000               0.000000000               0.000000000               0.002677159               0.005023052              -0.000204297               0.000376049               0.001548984               0.001925033               0.000000000               0.000000000               0.000000000               0.000000000               0.003150723               0.005069349              -0.000124636               0.000547847               0.001507150               0.002054997               0.000000000               0.000000000               0.000000000               0.000000000               0.000000000               0.000000000               0.000000000               0.000000000               0.000000000               0.000000000               0.000000000               0.000000000               0.000000000               0.000000000               0.000000000               0.000000000               0.000000000               0.000000000               0.000000000               0.000000000               0.000000000               0.000000000               0.000000000               0.000000000               0.000000000               0.000000000               0.000000000               0.000000000               0.000000000               0.000000000               0.000000000               0.000000000               0.000000000               0.000000000               0.000000000               0.000000000               0.000000000               0.000000000               0.000000000               0.000000000               0.000000000               0.000000000               0.000000000               0.000000000               0.000000000               0.000000000               0.000000000               0.000000000               0.000000000               0.000000000               0.000000000               0.000000000               0.000000000               0.000000000               0.000000000               0.000000000               0.000000000               0.000000000               0.000000000               0.000000000               0.000000000               0.000000000               0.000000000               0.000000000               0.000000000               0.000000000               0.000000000               0.000000000               0.000000000               0.000000000               0.000000000               0.000000000               0.000000000               0.000000000               0.000000000               0.000000000               0.000000000               0.000000000               0.000000000               0.000000000               0.000000000               0.000000000               0.000000000               0.000000000               0.000000000               0.000000000               0.000000000               0.000000000               0.000000000               0.000000000               0.000000000               0.000000000               0.000000000               0.000000000               0.000000000               0.000000000               0.000000000               0.000000000               0.000000000               0.000000000               0.000000000               0.000000000               0.000000000               0.000000000               0.000000000               0.000000000               0.000000000               0.000000000               0.000000000               0.000000000               0.000000000               0.000000000               0.000000000               0.000000000               0.000000000               0.000000000               0.000000000               0.000000000               0.000000000               0.000000000               0.000000000               0.000000000               0.000000000               0.000000000               0.000000000               0.000000000               0.000000000               0.000000000               0.000000000               0.000000000               0.000000000               0.000000000               0.000000000               0.000000000               0.000000000               0.000000000               0.000000000               0.000000000               0.000000000               0.000000000               0.000000000               0.000000000               0.000000000               0.000000000               0.000000000               0.000000000               0.000000000               0.000000000               0.000000000               0.000000000               0.000000000               0.000000000               0.000000000               0.000000000               0.000000000               0.000000000               0.000000000               0.000000000               0.000000000               0.000000000               0.000000000               0.000000000               0.000000000               0.000000000               0.000000000               0.000000000               0.000000000               0.000000000               0.000000000               0.000000000               0.000000000               0.000000000               0.000000000               0.000000000               0.000000000               0.000000000               0.000000000               0.000000000               0.000000000               0.000000000               0.000000000               0.000000000               0.000000000               0.000000000               0.000000000               0.000000000               0.000000000               0.000000000               0.000000000               0.000000000               0.000000000               0.000000000               0.000000000               0.000000000               0.000000000               0.000000000               0.000000000               0.000000000               0.000000000               0.000000000               0.000000000               0.000000000               0.000000000               0.000000000               0.000000000               0.000000000               0.000000000               0.000000000               0.000000000               0.000000000               0.000000000               0.000000000               0.000000000               0.000000000               0.000000000               0.000000000               0.000000000               0.000000000               0.000000000               0.000000000               0.000000000               0.000000000               0.000000000               0.000000000               0.000000000               0.000000000               0.000000000               0.000000000               0.000000000               0.000000000               0.000000000               0.000000000               0.000000000               0.000000000               0.000000000               0.000000000               0.000000000               0.000000000               0.000000000               0.000000000               0.000000000               0.000000000               0.000000000               0.000000000               0.000000000               0.000000000               0.000000000               0.000000000               0.000000000               0.000000000               0.000000000               0.000000000               0.000000000               0.000000000               0.000000000               0.000000000               0.000000000               0.000000000               0.000000000               0.000000000               0.000000000               0.000000000               0.000000000               0.000000000               0.000000000               0.000000000               0.000000000               0.000000000               0.000000000               0.000000000               0.000000000               0.000000000               0.000000000               0.000000000               0.000000000               0.000000000               0.000000000               0.000000000               0.000000000               0.000000000               0.000000000               0.000000000               0.000000000               0.000000000               0.000000000               0.000000000               0.000000000               0.000000000               0.000000000               0.000000000               0.000000000               0.000000000               0.000000000               0.000000000               0.000000000               0.000000000               0.000000000               0.000000000               0.000000000               0.000000000               0.000000000               0.000000000               0.000000000               0.000000000               0.000000000               0.000000000               0.000000000               0.000000000               0.000000000               0.000000000               0.000000000               0.000000000               0.000000000               0.000000000               0.000000000               0.000000000               0.000000000               0.000000000               0.000000000               0.000000000               0.000000000               0.000000000               0.000000000               0.000000000               0.000000000               0.000000000               0.000000000               0.000000000               0.000000000               0.000000000               0.000000000               0.000000000               0.000000000               0.000000000               0.000000000               0.000000000               0.000000000               0.000000000               0.000000000               0.000000000               0.000000000               0.000000000               0.000000000               0.000000000               0.002285044               0.023381983               0.001630500              -0.002065852               0.008482534               0.006416682               0.000000000               0.000000000               0.000000000               0.000000000               0.002157816               0.018336175               0.000816907              -0.001482837               0.006606276               0.005123439               0.000000000               0.000000000               0.000000000               0.000000000               0.002720510               0.014268373               0.000002820              -0.000763353               0.005010528               0.004247174               0.000000000               0.000000000               0.000000000               0.000000000               0.002544431               0.011974660              -0.000339715              -0.000542670               0.004172403               0.003629734               0.000000000               0.000000000               0.000000000               0.000000000               0.002169985               0.010528555              -0.000472653              -0.000502324               0.003676925               0.003174601               0.000000000               0.000000000               0.000000000               0.000000000               0.001781228               0.009529175              -0.000515613              -0.000523185               0.003350755               0.002827570               0.000000000               0.000000000               0.000000000               0.000000000               0.001425198               0.008778343              -0.000519204              -0.000562842               0.003113699               0.002550857               0.000000000               0.000000000               0.000000000               0.000000000               0.001111056               0.008171800              -0.000505397              -0.000604828               0.002925515               0.002320688               0.000000000               0.000000000               0.000000000               0.000000000               0.000839482               0.007650437              -0.000483103              -0.000641497               0.002763952               0.002122455               0.000000000               0.000000000               0.000000000               0.000000000               0.000614274               0.007178807              -0.000454247              -0.000666997               0.002615244               0.001948247               0.000000000               0.000000000               0.000000000               0.000000000               0.000434046               0.006731846              -0.000420266              -0.000678712               0.002470164               0.001791452               0.000000000               0.000000000               0.000000000               0.000000000               0.000286903               0.006287966              -0.000383178              -0.000678405               0.002322103               0.001643698               0.000000000               0.000000000               0.000000000               0.000000000               0.000168952               0.005833752              -0.000344344              -0.000665860               0.002166518               0.001500657               0.000000000               0.000000000               0.000000000               0.000000000               0.000078272               0.005355737              -0.000295733              -0.000640113               0.001998599               0.001358485               0.000000000               0.000000000               0.000000000               0.000000000               0.000017953               0.004839204              -0.000228003              -0.000598167               0.001812441               0.001214274               0.000000000               0.000000000               0.000000000               0.000000000              -0.000003541               0.004270348              -0.000129912              -0.000535120               0.001601809               0.001066688               0.000000000               0.000000000               0.000000000               0.000000000              -0.000050313               0.003842017              -0.000081865              -0.000499118               0.001447032               0.000947914               0.000000000               0.000000000               0.000000000               0.000000000               0.002471811               0.021962774               0.003028763              -0.001818415               0.007926989               0.006108575               0.000000000               0.000000000               0.000000000               0.000000000               0.002003584               0.017404437               0.001513057              -0.001424208               0.006276157               0.004851949               0.000000000               0.000000000               0.000000000               0.000000000               0.002202668               0.013843839               0.000013529              -0.000904477               0.004916059               0.004011582               0.000000000               0.000000000               0.000000000               0.000000000               0.001890787               0.011800021              -0.000599721              -0.000765956               0.004188620               0.003422664               0.000000000               0.000000000               0.000000000               0.000000000               0.001488794               0.010480305              -0.000832233              -0.000751739               0.003743980               0.002992241               0.000000000               0.000000000               0.000000000               0.000000000               0.001127809               0.009541167              -0.000902138              -0.000769716               0.003436929               0.002667213               0.000000000               0.000000000               0.000000000               0.000000000               0.000825639               0.008812664              -0.000902205              -0.000791967               0.003201514               0.002409547               0.000000000               0.000000000               0.000000000               0.000000000               0.000572355               0.008208210              -0.000871727              -0.000811391               0.003006506               0.002195115               0.000000000               0.000000000               0.000000000               0.000000000               0.000365222               0.007679765              -0.000828322              -0.000823011               0.002834233               0.002011222               0.000000000               0.000000000               0.000000000               0.000000000               0.000201410               0.007203213              -0.000777528              -0.000824871               0.002676004               0.001851133               0.000000000               0.000000000               0.000000000               0.000000000               0.000078672               0.006756881              -0.000718816              -0.000815106               0.002523973               0.001708867               0.000000000               0.000000000               0.000000000               0.000000000              -0.000010599               0.006321243              -0.000653291              -0.000794128               0.002371769               0.001577641               0.000000000               0.000000000               0.000000000               0.000000000              -0.000069511               0.005879517              -0.000581139              -0.000761004               0.002213487               0.001452483               0.000000000               0.000000000               0.000000000               0.000000000              -0.000093248               0.005423824              -0.000492845              -0.000712944               0.002045571               0.001332627               0.000000000               0.000000000               0.000000000               0.000000000              -0.000083522               0.004956750              -0.000377322              -0.000650913               0.001869205               0.001218292               0.000000000               0.000000000               0.000000000               0.000000000              -0.000049851               0.004479436              -0.000214937              -0.000578622               0.001686005               0.001107382               0.000000000               0.000000000               0.000000000               0.000000000              -0.000065034               0.004145135              -0.000133526              -0.000542528               0.001562541               0.001020012               0.000000000               0.000000000               0.000000000               0.000000000               0.002657448               0.019794418               0.004019923              -0.001477758               0.007090659               0.005612901               0.000000000               0.000000000               0.000000000               0.000000000               0.001710273               0.016007200               0.002011809              -0.001359545               0.005788862               0.004429316               0.000000000               0.000000000               0.000000000               0.000000000               0.001403967               0.013217485               0.000055705              -0.001125695               0.004781016               0.003655321               0.000000000               0.000000000               0.000000000               0.000000000               0.000941543               0.011538568              -0.000705754              -0.001089240               0.004209231               0.003119991               0.000000000               0.000000000               0.000000000               0.000000000               0.000539210               0.010393267              -0.000978337              -0.001096952               0.003830038               0.002733086               0.000000000               0.000000000               0.000000000               0.000000000               0.000237238               0.009528060              -0.001049795              -0.001102041               0.003543335               0.002441294               0.000000000               0.000000000               0.000000000               0.000000000               0.000020998               0.008829813              -0.001039856              -0.001095850               0.003308525               0.002212675               0.000000000               0.000000000               0.000000000               0.000000000              -0.000136148               0.008232446              -0.000996979              -0.001080109               0.003104157               0.002024049               0.000000000               0.000000000               0.000000000               0.000000000              -0.000239098               0.007705440              -0.000944519              -0.001052839               0.002919401               0.001866561               0.000000000               0.000000000               0.000000000               0.000000000              -0.000300471               0.007227326              -0.000887059              -0.001016090               0.002747781               0.001731691               0.000000000               0.000000000               0.000000000               0.000000000              -0.000331084               0.006779555              -0.000819642              -0.000971599               0.002583695               0.001612096               0.000000000               0.000000000               0.000000000               0.000000000              -0.000329972               0.006350179              -0.000740496              -0.000917510               0.002422542               0.001505032               0.000000000               0.000000000               0.000000000               0.000000000              -0.000298969               0.005929179              -0.000648001              -0.000853259               0.002260793               0.001407534               0.000000000               0.000000000               0.000000000               0.000000000              -0.000243542               0.005517409              -0.000539466              -0.000781002               0.002099452               0.001318450               0.000000000               0.000000000               0.000000000               0.000000000              -0.000166011               0.005131018              -0.000404048              -0.000703630               0.001944865               0.001241236               0.000000000               0.000000000               0.000000000               0.000000000              -0.000082086               0.004785299              -0.000224473              -0.000628943               0.001804732               0.001175788               0.000000000               0.000000000               0.000000000               0.000000000              -0.000064786               0.004574121              -0.000134104              -0.000596058               0.001723378               0.001127320               0.000000000               0.000000000               0.000000000               0.000000000               0.002698892               0.017159085               0.004517195              -0.001132802               0.006097237               0.004964436               0.000000000               0.000000000               0.000000000               0.000000000               0.001257923               0.014350083               0.002292219              -0.001322037               0.005223992               0.003901955               0.000000000               0.000000000               0.000000000               0.000000000               0.000425963               0.012484471               0.000159693              -0.001400819               0.004628388               0.003227569               0.000000000               0.000000000               0.000000000               0.000000000              -0.000140526               0.011208448              -0.000620525              -0.001453750               0.004220695               0.002766945               0.000000000               0.000000000               0.000000000               0.000000000              -0.000489845               0.010240529              -0.000881419              -0.001463754               0.003901394               0.002437639               0.000000000               0.000000000               0.000000000               0.000000000              -0.000682771               0.009456342              -0.000940435              -0.001438078               0.003631442               0.002193364               0.000000000               0.000000000               0.000000000               0.000000000              -0.000775037               0.008793978              -0.000927119              -0.001389883               0.003394591               0.002004708               0.000000000               0.000000000               0.000000000               0.000000000              -0.000806346               0.008211342              -0.000887887              -0.001328794               0.003180018               0.001851224               0.000000000               0.000000000               0.000000000               0.000000000              -0.000788120               0.007688543              -0.000843116              -0.001256610               0.002981692               0.001725082               0.000000000               0.000000000               0.000000000               0.000000000              -0.000734068               0.007208525              -0.000792697              -0.001176338               0.002794931               0.001618592               0.000000000               0.000000000               0.000000000               0.000000000              -0.000654187               0.006757455              -0.000731643              -0.001089999               0.002615796               0.001525796               0.000000000               0.000000000               0.000000000               0.000000000              -0.000550928               0.006331142              -0.000656164              -0.000997989               0.002443022               0.001445034               0.000000000               0.000000000               0.000000000               0.000000000              -0.000430423               0.005933985              -0.000562786              -0.000903155               0.002279027               0.001375872               0.000000000               0.000000000               0.000000000               0.000000000              -0.000303620               0.005577446              -0.000454355              -0.000811036               0.002129476               0.001318439               0.000000000               0.000000000               0.000000000               0.000000000              -0.000182873               0.005277003              -0.000327511              -0.000728201               0.002001717               0.001273516               0.000000000               0.000000000               0.000000000               0.000000000              -0.000083283               0.005050927              -0.000173957              -0.000662595               0.001904491               0.001241895               0.000000000               0.000000000               0.000000000               0.000000000              -0.000050802               0.004942222              -0.000096362              -0.000636827               0.001859667               0.001222840               0.000000000               0.000000000               0.000000000               0.000000000               0.002470370               0.014332944               0.004536211              -0.000865231               0.005066010               0.004200778               0.000000000               0.000000000               0.000000000               0.000000000               0.000645801               0.012612829               0.002389341              -0.001334426               0.004649042               0.003314616               0.000000000               0.000000000               0.000000000               0.000000000              -0.000614544               0.011695814               0.000357270              -0.001692427               0.004462708               0.002770281               0.000000000               0.000000000               0.000000000               0.000000000              -0.001189415               0.010795420              -0.000342723              -0.001795454               0.004196922               0.002401468               0.000000000               0.000000000               0.000000000               0.000000000              -0.001418846               0.009986951              -0.000572610              -0.001780432               0.003922428               0.002141996               0.000000000               0.000000000               0.000000000               0.000000000              -0.001460218               0.009279021              -0.000630631              -0.001707455               0.003662128               0.001954672               0.000000000               0.000000000               0.000000000               0.000000000              -0.001406360               0.008653075              -0.000633703              -0.001609015               0.003420668               0.001811653               0.000000000               0.000000000               0.000000000               0.000000000              -0.001304164               0.008090854              -0.000615738              -0.001500414               0.003197062               0.001696648               0.000000000               0.000000000               0.000000000               0.000000000              -0.001169766               0.007575571              -0.000592121              -0.001385605               0.002987033               0.001601428               0.000000000               0.000000000               0.000000000               0.000000000              -0.001006082               0.007095182              -0.000561198              -0.001264175               0.002786429               0.001522253               0.000000000               0.000000000               0.000000000               0.000000000              -0.000821643               0.006640276              -0.000518215              -0.001138148               0.002592786               0.001454638               0.000000000               0.000000000               0.000000000               0.000000000              -0.000631396               0.006220562              -0.000459811              -0.001014341               0.002411614               0.001397273               0.000000000               0.000000000               0.000000000               0.000000000              -0.000448028               0.005852054              -0.000383729              -0.000899515               0.002250503               0.001350988               0.000000000               0.000000000               0.000000000               0.000000000              -0.000283764               0.005548854              -0.000295079              -0.000800016               0.002116272               0.001316255               0.000000000               0.000000000               0.000000000               0.000000000              -0.000152400               0.005318046              -0.000195925              -0.000721904               0.002013299               0.001291395               0.000000000               0.000000000               0.000000000               0.000000000              -0.000062005               0.005167150              -0.000093809              -0.000669144               0.001945414               0.001276270               0.000000000               0.000000000               0.000000000               0.000000000              -0.000032850               0.005106678              -0.000047567              -0.000650652               0.001919093               0.001268441               0.000000000               0.000000000               0.000000000               0.000000000               0.001914569               0.011532387               0.004162110              -0.000723587               0.004085285               0.003361698               0.000000000               0.000000000               0.000000000               0.000000000              -0.000092606               0.010911127               0.002361828              -0.001398616               0.004103211               0.002704595               0.000000000               0.000000000               0.000000000               0.000000000              -0.001603619               0.010870099               0.000656765              -0.001960115               0.004276701               0.002316587               0.000000000               0.000000000               0.000000000               0.000000000              -0.002073328               0.010287540               0.000080402              -0.002063435               0.004116957               0.002053522               0.000000000               0.000000000               0.000000000               0.000000000              -0.002126033               0.009618094              -0.000131220              -0.001999519               0.003872506               0.001872987               0.000000000               0.000000000               0.000000000               0.000000000              -0.001997422               0.008976332              -0.000214196              -0.001871070               0.003615771               0.001744701               0.000000000               0.000000000               0.000000000               0.000000000              -0.001800049               0.008385377              -0.000255193              -0.001723186               0.003369493               0.001646307               0.000000000               0.000000000               0.000000000               0.000000000              -0.001578348               0.007842298              -0.000275825              -0.001572164               0.003138128               0.001565964               0.000000000               0.000000000               0.000000000               0.000000000              -0.001341952               0.007340622              -0.000283419              -0.001420806               0.002920452               0.001499645               0.000000000               0.000000000               0.000000000               0.000000000              -0.001090258               0.006864479              -0.000277348              -0.001266904               0.002710438               0.001443534               0.000000000               0.000000000               0.000000000               0.000000000              -0.000833036               0.006419435              -0.000258236              -0.001114815               0.002511395               0.001396580               0.000000000               0.000000000               0.000000000               0.000000000              -0.000592103               0.006026642              -0.000227074              -0.000975366               0.002333983               0.001358616               0.000000000               0.000000000               0.000000000               0.000000000              -0.000384430               0.005701667              -0.000181232              -0.000856868               0.002186159               0.001329292               0.000000000               0.000000000               0.000000000               0.000000000              -0.000220654               0.005449590              -0.000126952              -0.000763942               0.002071159               0.001307217               0.000000000               0.000000000               0.000000000               0.000000000              -0.000105828               0.005268569              -0.000072373              -0.000698255               0.001988924               0.001290669               0.000000000               0.000000000               0.000000000               0.000000000              -0.000037224               0.005152705              -0.000027514              -0.000658045               0.001936899               0.001278854               0.000000000               0.000000000               0.000000000               0.000000000              -0.000023278               0.005098491              -0.000014346              -0.000646039               0.001914826               0.001268788               0.000000000               0.000000000               0.000000000               0.000000000               0.001053593               0.008934713               0.003497371              -0.000721743               0.003218788               0.002497044               0.000000000               0.000000000               0.000000000               0.000000000              -0.000916199               0.009342378               0.002256612              -0.001511370               0.003617884               0.002106515               0.000000000               0.000000000               0.000000000               0.000000000              -0.002447729               0.010022596               0.001039543              -0.002170718               0.004064405               0.001893687               0.000000000               0.000000000               0.000000000               0.000000000              -0.002717675               0.009691350               0.000574503              -0.002230542               0.003973932               0.001743390               0.000000000               0.000000000               0.000000000               0.000000000              -0.002568866               0.009146168               0.000349791              -0.002106591               0.003750889               0.001644298               0.000000000               0.000000000               0.000000000               0.000000000              -0.002278871               0.008571874               0.000220896              -0.001926056               0.003499281               0.001573225               0.000000000               0.000000000               0.000000000               0.000000000              -0.001958616               0.008018985               0.000131102              -0.001736850               0.003251918               0.001515068               0.000000000               0.000000000               0.000000000               0.000000000              -0.001635753               0.007498966               0.000062992              -0.001550774               0.003016555               0.001465781               0.000000000               0.000000000               0.000000000               0.000000000              -0.001314537               0.007012200               0.000015494              -0.001369473               0.002793868               0.001424394               0.000000000               0.000000000               0.000000000               0.000000000              -0.001002597               0.006554898              -0.000009054              -0.001195333               0.002583388               0.001388055               0.000000000               0.000000000               0.000000000               0.000000000              -0.000711266               0.006144642              -0.000021413              -0.001034803               0.002393128               0.001358325               0.000000000               0.000000000               0.000000000               0.000000000              -0.000463215               0.005799406              -0.000027855              -0.000898629               0.002232659               0.001334030               0.000000000               0.000000000               0.000000000               0.000000000              -0.000272064               0.005526667              -0.000023666              -0.000792855               0.002106489               0.001313634               0.000000000               0.000000000               0.000000000               0.000000000              -0.000138486               0.005325547              -0.000012766              -0.000717624               0.002014373               0.001296749               0.000000000               0.000000000               0.000000000               0.000000000              -0.000055943               0.005185869              -0.000004047              -0.000669211               0.001951676               0.001282465               0.000000000               0.000000000               0.000000000               0.000000000              -0.000015846               0.005094901              -0.000001190              -0.000642803               0.001912551               0.001269748               0.000000000               0.000000000               0.000000000               0.000000000              -0.000014727               0.005049370              -0.000006338              -0.000636692               0.001895337               0.001258645               0.000000000               0.000000000               0.000000000               0.000000000               0.000005546               0.006735679               0.002665732              -0.000839880               0.002525163               0.001685283               0.000000000               0.000000000               0.000000000               0.000000000              -0.001719946               0.007946040               0.002124832              -0.001638232               0.003194730               0.001556499               0.000000000               0.000000000               0.000000000               0.000000000              -0.003093463               0.009195704               0.001486171              -0.002309506               0.003835039               0.001525533               0.000000000               0.000000000               0.000000000               0.000000000              -0.003145362               0.009127203               0.001094827              -0.002320405               0.003815839               0.001495433               0.000000000               0.000000000               0.000000000               0.000000000              -0.002831812               0.008727209               0.000834704              -0.002152825               0.003626649               0.001473824               0.000000000               0.000000000               0.000000000               0.000000000              -0.002416666               0.008238295               0.000650435              -0.001936032               0.003391415               0.001455383               0.000000000               0.000000000               0.000000000               0.000000000              -0.002001981               0.007740649               0.000509177              -0.001718320               0.003152964               0.001434644               0.000000000               0.000000000               0.000000000               0.000000000              -0.001603627               0.007259265               0.000394246              -0.001508765               0.002922652               0.001413888               0.000000000               0.000000000               0.000000000               0.000000000              -0.001219412               0.006798377               0.000301869              -0.001307073               0.002701794               0.001394721               0.000000000               0.000000000               0.000000000               0.000000000              -0.000865724               0.006363115               0.000233117              -0.001120033               0.002494362               0.001374329               0.000000000               0.000000000               0.000000000               0.000000000              -0.000559147               0.005983198               0.000177700              -0.000957577               0.002313572               0.001355994               0.000000000               0.000000000               0.000000000               0.000000000              -0.000322000               0.005671526               0.000126739              -0.000829688               0.002167053               0.001337364               0.000000000               0.000000000               0.000000000               0.000000000              -0.000157482               0.005429535               0.000086290              -0.000737746               0.002055742               0.001317996               0.000000000               0.000000000               0.000000000               0.000000000              -0.000055532               0.005251292               0.000053059              -0.000677234               0.001976158               0.001298924               0.000000000               0.000000000               0.000000000               0.000000000              -0.000005491               0.005130727               0.000024412              -0.000643398               0.001924691               0.001281293               0.000000000               0.000000000               0.000000000               0.000000000               0.000004433               0.005054562               0.000003018              -0.000630156               0.001894889               0.001264733               0.000000000               0.000000000               0.000000000               0.000000000              -0.000001044               0.005023450              -0.000006375              -0.000628321               0.001883907               0.001255586               0.000000000               0.000000000               0.000000000               0.000000000              -0.001222172               0.004696113               0.001779740              -0.001045327               0.001913797               0.000868470               0.000000000               0.000000000               0.000000000               0.000000000              -0.002380837               0.006350190               0.001971181              -0.001686584               0.002678903               0.000992319               0.000000000               0.000000000               0.000000000               0.000000000              -0.003452296               0.008005336               0.001953083              -0.002295273               0.003433509               0.001138236               0.000000000               0.000000000               0.000000000               0.000000000              -0.003388411               0.008309585               0.001652721              -0.002309347               0.003539616               0.001230269               0.000000000               0.000000000               0.000000000               0.000000000              -0.003019639               0.008165886               0.001365202              -0.002153096               0.003439633               0.001286538               0.000000000               0.000000000               0.000000000               0.000000000              -0.002566346               0.007858788               0.001126180              -0.001944724               0.003267811               0.001323087               0.000000000               0.000000000               0.000000000               0.000000000              -0.002118185               0.007495873               0.000932287              -0.001731299               0.003075699               0.001344400               0.000000000               0.000000000               0.000000000               0.000000000              -0.001699903               0.007122413               0.000771057              -0.001527762               0.002883368               0.001355606               0.000000000               0.000000000               0.000000000               0.000000000              -0.001303858               0.006749815               0.000633114              -0.001332670               0.002694139               0.001361469               0.000000000               0.000000000               0.000000000               0.000000000              -0.000937538               0.006382114               0.000512493              -0.001149338               0.002510463               0.001361125               0.000000000               0.000000000               0.000000000               0.000000000              -0.000617243               0.006036751               0.000403628              -0.000986058               0.002340916               0.001354858               0.000000000               0.000000000               0.000000000               0.000000000              -0.000358929               0.005735701               0.000304082              -0.000851559               0.002195734               0.001344175               0.000000000               0.000000000               0.000000000               0.000000000              -0.000174141               0.005487729               0.000217303              -0.000751267               0.002079647               0.001328380               0.000000000               0.000000000               0.000000000               0.000000000              -0.000056413               0.005293970               0.000138846              -0.000682899               0.001992272               0.001309373               0.000000000               0.000000000               0.000000000               0.000000000               0.000004637               0.005153595               0.000070280              -0.000642459               0.001932001               0.001289542               0.000000000               0.000000000               0.000000000               0.000000000               0.000020906               0.005059520               0.000022680              -0.000624599               0.001894689               0.001270091               0.000000000               0.000000000               0.000000000               0.000000000               0.000018662               0.005025278               0.000004792              -0.000621160               0.001882129               0.001260969               0.000000000               0.000000000               0.000000000               0.000000000              -0.002794594               0.002854492               0.000898102              -0.001404782               0.001419747               0.000014966               0.000000000               0.000000000               0.000000000               0.000000000              -0.003118961               0.004753822               0.001740723              -0.001763834               0.002172536               0.000408701               0.000000000               0.000000000               0.000000000               0.000000000              -0.003708818               0.006629137               0.002317394              -0.002219444               0.002949504               0.000730060               0.000000000               0.000000000               0.000000000               0.000000000              -0.003540275               0.007281783               0.002179485              -0.002237821               0.003173176               0.000935355               0.000000000               0.000000000               0.000000000               0.000000000              -0.003153480               0.007431157               0.001906526              -0.002111445               0.003180842               0.001069397               0.000000000               0.000000000               0.000000000               0.000000000              -0.002694001               0.007352371               0.001638194              -0.001929292               0.003093863               0.001164570               0.000000000               0.000000000               0.000000000               0.000000000              -0.002233398               0.007165560               0.001400772              -0.001733215               0.002966234               0.001233019               0.000000000               0.000000000               0.000000000               0.000000000              -0.001806059               0.006928388               0.001198581              -0.001543317               0.002823878               0.001280561               0.000000000               0.000000000               0.000000000               0.000000000              -0.001407972               0.006665231               0.001022165              -0.001361140               0.002675435               0.001314294               0.000000000               0.000000000               0.000000000               0.000000000              -0.001034184               0.006392526               0.000859112              -0.001186882               0.002526448               0.001339566               0.000000000               0.000000000               0.000000000               0.000000000              -0.000695138               0.006108430               0.000706225              -0.001024228               0.002377532               0.001353304               0.000000000               0.000000000               0.000000000               0.000000000              -0.000400307               0.005832251               0.000562090              -0.000879144               0.002237112               0.001357968               0.000000000               0.000000000               0.000000000               0.000000000              -0.000168961               0.005584068               0.000427237              -0.000761367               0.002115126               0.001353759               0.000000000               0.000000000               0.000000000               0.000000000              -0.000009269               0.005374862               0.000301020              -0.000675332               0.002016714               0.001341381               0.000000000               0.000000000               0.000000000               0.000000000               0.000080980               0.005207634               0.000181804              -0.000620585               0.001942722               0.001322137               0.000000000               0.000000000               0.000000000               0.000000000               0.000106590               0.005087493               0.000080702              -0.000595964               0.001894469               0.001298505               0.000000000               0.000000000               0.000000000               0.000000000               0.000094706               0.005034497               0.000033016              -0.000593796               0.001876081               0.001282285               0.000000000               0.000000000               0.000000000               0.000000000              -0.004624940               0.001347220               0.000097984              -0.001902752               0.001083317              -0.000819436               0.000000000               0.000000000               0.000000000               0.000000000              -0.003996689               0.003254145               0.001416161              -0.001905523               0.001719877              -0.000185646               0.000000000               0.000000000               0.000000000               0.000000000              -0.003905997               0.005085546               0.002464095              -0.002100438               0.002395310               0.000294872               0.000000000               0.000000000               0.000000000               0.000000000              -0.003549431               0.005974865               0.002526192              -0.002077891               0.002684231               0.000606340               0.000000000               0.000000000               0.000000000               0.000000000              -0.003123519               0.006390425               0.002324303              -0.001970119               0.002786826               0.000816707               0.000000000               0.000000000               0.000000000               0.000000000              -0.002670597               0.006548880               0.002068237              -0.001820080               0.002789631               0.000969551               0.000000000               0.000000000               0.000000000               0.000000000              -0.002217013               0.006561916               0.001815550              -0.001651616               0.002737822               0.001086206               0.000000000               0.000000000               0.000000000               0.000000000              -0.001788821               0.006490846               0.001590733              -0.001482160               0.002657647               0.001175487               0.000000000               0.000000000               0.000000000               0.000000000              -0.001392476               0.006370093               0.001393329              -0.001318437               0.002562822               0.001244385               0.000000000               0.000000000               0.000000000               0.000000000              -0.001018201               0.006214946               0.001209378              -0.001158691               0.002457858               0.001299167               0.000000000               0.000000000               0.000000000               0.000000000              -0.000666917               0.006025567               0.001032992              -0.001003288               0.002342931               0.001339644               0.000000000               0.000000000               0.000000000               0.000000000              -0.000348983               0.005814489               0.000859504              -0.000857678               0.002224036               0.001366358               0.000000000               0.000000000               0.000000000               0.000000000              -0.000074495               0.005604441               0.000687811              -0.000728489               0.002110958               0.001382469               0.000000000               0.000000000               0.000000000               0.000000000               0.000135044               0.005409478               0.000514966              -0.000625542               0.002011655               0.001386113               0.000000000               0.000000000               0.000000000               0.000000000               0.000265114               0.005237550               0.000339392              -0.000555275               0.001930924               0.001375650               0.000000000               0.000000000               0.000000000               0.000000000               0.000310368               0.005102792               0.000166221              -0.000521460               0.001874734               0.001353274               0.000000000               0.000000000               0.000000000               0.000000000               0.000296545               0.005037567               0.000077064              -0.000518490               0.001852002               0.001333512               0.000000000               0.000000000               0.000000000               0.000000000              -0.006580295               0.000245253              -0.000509399              -0.002498265               0.000914500              -0.001583765               0.000000000               0.000000000               0.000000000               0.000000000              -0.004961506               0.001926940               0.001044135              -0.002101429               0.001342780              -0.000758649               0.000000000               0.000000000               0.000000000               0.000000000              -0.004072154               0.003498532               0.002366183              -0.001964370               0.001820954              -0.000143417               0.000000000               0.000000000               0.000000000               0.000000000              -0.003444354               0.004494019               0.002604941              -0.001853382               0.002115784               0.000262402               0.000000000               0.000000000               0.000000000               0.000000000              -0.002936648               0.005112816               0.002502780              -0.001740342               0.002284368               0.000544026               0.000000000               0.000000000               0.000000000               0.000000000              -0.002482582               0.005486927               0.002295482              -0.001616831               0.002367900               0.000751069               0.000000000               0.000000000               0.000000000               0.000000000              -0.002047378               0.005702140               0.002063700              -0.001480532               0.002394204               0.000913673               0.000000000               0.000000000               0.000000000               0.000000000              -0.001630553               0.005815846               0.001842616              -0.001338435               0.002384740               0.001046305               0.000000000               0.000000000               0.000000000               0.000000000              -0.001241344               0.005854990               0.001644533              -0.001197376               0.002350769               0.001153393               0.000000000               0.000000000               0.000000000               0.000000000              -0.000874548               0.005829379               0.001463823              -0.001056626               0.002295315               0.001238689               0.000000000               0.000000000               0.000000000               0.000000000              -0.000519748               0.005756589               0.001289029              -0.000914477               0.002223669               0.001309192               0.000000000               0.000000000               0.000000000               0.000000000              -0.000179561               0.005646940               0.001111526              -0.000773201               0.002140028               0.001366827               0.000000000               0.000000000               0.000000000               0.000000000               0.000132531               0.005513405               0.000926359              -0.000639475               0.002050942               0.001411466               0.000000000               0.000000000               0.000000000               0.000000000               0.000399195               0.005370532               0.000724808              -0.000521617               0.001964032               0.001442414               0.000000000               0.000000000               0.000000000               0.000000000               0.000601430               0.005231449               0.000504357              -0.000428394               0.001886597               0.001458203               0.000000000               0.000000000               0.000000000               0.000000000               0.000716544               0.005108499               0.000261805              -0.000369858               0.001826102               0.001456244               0.000000000               0.000000000               0.000000000               0.000000000               0.000743346               0.005047334               0.000133403              -0.000352161               0.001799815               0.001447654               0.000000000               0.000000000               0.000000000               0.000000000              -0.008460914              -0.000465293              -0.000821323              -0.003114679               0.000883122              -0.002231557               0.000000000               0.000000000               0.000000000               0.000000000              -0.005920480               0.000848499               0.000685163              -0.002326240               0.001058239              -0.001268001               0.000000000               0.000000000               0.000000000               0.000000000              -0.004219591               0.002022773               0.002024272              -0.001835190               0.001285978              -0.000549212               0.000000000               0.000000000               0.000000000               0.000000000              -0.003270517               0.003009170               0.002361796              -0.001602587               0.001537241              -0.000065347               0.000000000               0.000000000               0.000000000               0.000000000              -0.002645135               0.003751085               0.002349460              -0.001460809               0.001737284               0.000276475               0.000000000               0.000000000               0.000000000               0.000000000              -0.002163266               0.004291754               0.002211472              -0.001347692               0.001879800               0.000532108               0.000000000               0.000000000               0.000000000               0.000000000              -0.001743229               0.004682408               0.002027504              -0.001239010               0.001973790               0.000734780               0.000000000               0.000000000               0.000000000               0.000000000              -0.001347296               0.004964791               0.001837240              -0.001125833               0.002030191               0.000904358               0.000000000               0.000000000               0.000000000               0.000000000              -0.000973434               0.005158868               0.001660789              -0.001009895               0.002056236               0.001046342               0.000000000               0.000000000               0.000000000               0.000000000              -0.000614024               0.005274463               0.001502987              -0.000889565               0.002054658               0.001165093               0.000000000               0.000000000               0.000000000               0.000000000              -0.000259245               0.005328025               0.001354936              -0.000763219               0.002030396               0.001267178               0.000000000               0.000000000               0.000000000               0.000000000               0.000097994               0.005335689               0.001200599              -0.000630212               0.001988616               0.001358403               0.000000000               0.000000000               0.000000000               0.000000000               0.000449418               0.005307195               0.001029535              -0.000494867               0.001934003               0.001439136               0.000000000               0.000000000               0.000000000               0.000000000               0.000784464               0.005248521               0.000835629              -0.000361891               0.001870120               0.001508229               0.000000000               0.000000000               0.000000000               0.000000000               0.001092571               0.005170627               0.000607287              -0.000236614               0.001802396               0.001565783               0.000000000               0.000000000               0.000000000               0.000000000               0.001349696               0.005087035               0.000327502              -0.000129743               0.001738909               0.001609166               0.000000000               0.000000000               0.000000000               0.000000000               0.001489732               0.005055121               0.000179095              -0.000073241               0.001709437               0.001636196               0.000000000               0.000000000               0.000000000               0.000000000              -0.010046322              -0.000858233              -0.000798381              -0.003660089               0.000933946              -0.002726144               0.000000000               0.000000000               0.000000000               0.000000000              -0.006755955               0.000066736               0.000389885              -0.002541823               0.000869513              -0.001672309               0.000000000               0.000000000               0.000000000               0.000000000              -0.004347290               0.000824270               0.001476911              -0.001733266               0.000852505              -0.000880760               0.000000000               0.000000000               0.000000000               0.000000000              -0.003080870               0.001727534               0.001800279              -0.001371266               0.001032925              -0.000338341               0.000000000               0.000000000               0.000000000               0.000000000              -0.002318721               0.002523457               0.001836193              -0.001184951               0.001236126               0.000051176               0.000000000               0.000000000               0.000000000               0.000000000              -0.001793216               0.003171284               0.001760392              -0.001068865               0.001413371               0.000344507               0.000000000               0.000000000               0.000000000               0.000000000              -0.001376813               0.003688479               0.001637462              -0.000977363               0.001555268               0.000577905               0.000000000               0.000000000               0.000000000               0.000000000              -0.001003849               0.004105330               0.001499389              -0.000889608               0.001664965               0.000775357               0.000000000               0.000000000               0.000000000               0.000000000              -0.000647929               0.004433352               0.001368039              -0.000797141               0.001743483               0.000946342               0.000000000               0.000000000               0.000000000               0.000000000              -0.000297418               0.004676135               0.001253263              -0.000696048               0.001790712               0.001094664               0.000000000               0.000000000               0.000000000               0.000000000               0.000053744               0.004846346               0.001146398              -0.000585638               0.001810645               0.001225007               0.000000000               0.000000000               0.000000000               0.000000000               0.000418021               0.004970073               0.001033583              -0.000464501               0.001811508               0.001347007               0.000000000               0.000000000               0.000000000               0.000000000               0.000804727               0.005051856               0.000905068              -0.000329709               0.001793838               0.001464129               0.000000000               0.000000000               0.000000000               0.000000000               0.001210707               0.005084005               0.000754796              -0.000181485               0.001755146               0.001573661               0.000000000               0.000000000               0.000000000               0.000000000               0.001636645               0.005079601               0.000568350              -0.000021209               0.001700253               0.001679044               0.000000000               0.000000000               0.000000000               0.000000000               0.002081957               0.005050058               0.000317525               0.000149475               0.001633511               0.001782986               0.000000000               0.000000000               0.000000000               0.000000000               0.002393848               0.005060866               0.000183894               0.000265082               0.001598578               0.001863660               0.000000000               0.000000000               0.000000000               0.000000000              -0.011112844              -0.001030780              -0.000488008              -0.004038466               0.001002555              -0.003035911               0.000000000               0.000000000               0.000000000               0.000000000              -0.007334524              -0.000400071               0.000167440              -0.002700436               0.000766783              -0.001933653               0.000000000               0.000000000               0.000000000               0.000000000              -0.004437725               0.000042557               0.000778066              -0.001669465               0.000570670              -0.001098795               0.000000000               0.000000000               0.000000000               0.000000000              -0.002936440               0.000850883               0.000976217              -0.001207524               0.000686131              -0.000521393               0.000000000               0.000000000               0.000000000               0.000000000              -0.002062027               0.001655568               0.001011190              -0.000980204               0.000878584              -0.000101620               0.000000000               0.000000000               0.000000000               0.000000000              -0.001495762               0.002362442               0.000980074              -0.000856214               0.001072877               0.000216663               0.000000000               0.000000000               0.000000000               0.000000000              -0.001075402               0.002960504               0.000918709              -0.000773337               0.001244603               0.000471266               0.000000000               0.000000000               0.000000000               0.000000000              -0.000715460               0.003463957               0.000845799              -0.000701291               0.001388404               0.000687114               0.000000000               0.000000000               0.000000000               0.000000000              -0.000372706               0.003880135               0.000777090              -0.000624780               0.001501625               0.000876845               0.000000000               0.000000000               0.000000000               0.000000000              -0.000034041               0.004213523               0.000716680              -0.000539455               0.001584312               0.001044857               0.000000000               0.000000000               0.000000000               0.000000000               0.000309917               0.004472561               0.000660261              -0.000442851               0.001638455               0.001195605               0.000000000               0.000000000               0.000000000               0.000000000               0.000677650               0.004679578               0.000602704              -0.000330828               0.001670120               0.001339292               0.000000000               0.000000000               0.000000000               0.000000000               0.001086696               0.004844305               0.000536386              -0.000198027               0.001680761               0.001482734               0.000000000               0.000000000               0.000000000               0.000000000               0.001546641               0.004954766               0.000455343              -0.000039356               0.001664691               0.001625335               0.000000000               0.000000000               0.000000000               0.000000000               0.002069568               0.005011875               0.000352314               0.000149602               0.001620741               0.001770343               0.000000000               0.000000000               0.000000000               0.000000000               0.002677159               0.005023052               0.000204297               0.000376049               0.001548984               0.001925033               0.000000000               0.000000000               0.000000000               0.000000000               0.003150723               0.005069349               0.000124636               0.000547847               0.001507150               0.002054997               0.000000000               0.000000000               0.000000000               0.000000000               0.000000000               0.000000000               0.000000000               0.000000000               0.000000000               0.000000000               0.000000000               0.000000000               0.000000000               0.000000000               0.000000000               0.000000000               0.000000000               0.000000000               0.000000000               0.000000000               0.000000000               0.000000000               0.000000000               0.000000000               0.000000000               0.000000000               0.000000000               0.000000000               0.000000000               0.000000000               0.000000000               0.000000000               0.000000000               0.000000000               0.000000000               0.000000000               0.000000000               0.000000000               0.000000000               0.000000000               0.000000000               0.000000000               0.000000000               0.000000000               0.000000000               0.000000000               0.000000000               0.000000000               0.000000000               0.000000000               0.000000000               0.000000000               0.000000000               0.000000000               0.000000000               0.000000000               0.000000000               0.000000000               0.000000000               0.000000000               0.000000000               0.000000000               0.000000000               0.000000000               0.000000000               0.000000000               0.000000000               0.000000000               0.000000000               0.000000000               0.000000000               0.000000000               0.000000000               0.000000000               0.000000000               0.000000000               0.000000000               0.000000000               0.000000000               0.000000000               0.000000000               0.000000000               0.000000000               0.000000000               0.000000000               0.000000000               0.000000000               0.000000000               0.000000000               0.000000000               0.000000000               0.000000000               0.000000000               0.000000000               0.000000000               0.000000000               0.000000000               0.000000000               0.000000000               0.000000000               0.000000000               0.000000000               0.000000000               0.000000000               0.000000000               0.000000000               0.000000000               0.000000000               0.000000000               0.000000000               0.000000000               0.000000000               0.000000000               0.000000000               0.000000000               0.000000000               0.000000000               0.000000000               0.000000000               0.000000000               0.000000000               0.000000000               0.000000000               0.000000000               0.000000000               0.000000000               0.000000000               0.000000000               0.000000000               0.000000000               0.000000000               0.000000000               0.000000000               0.000000000               0.000000000               0.000000000               0.000000000               0.000000000               0.000000000               0.000000000               0.000000000               0.000000000               0.000000000               0.000000000               0.000000000               0.000000000               0.000000000               0.000000000               0.000000000               0.000000000               0.000000000               0.000000000               0.000000000               0.000000000               0.000000000               0.000000000               0.000000000               0.000000000               0.000000000               0.000000000               0.000000000               0.000000000               0.000000000               0.000000000               0.000000000               0.000000000               0.000000000               0.000000000               0.000000000               0.000000000               0.000000000               0.000000000               0.000000000               0.000000000 </DataArray>
</PointData>
</Piece>
</UnstructuredGrid> </VTKFile>
