<?xml version="1.0"?>
<VTKFile type="UnstructuredGrid" version="0.1">
<UnstructuredGrid>
<Piece NumberOfPoints="      1156" NumberOfCells="      1024">
<Points>
<DataArray type="Float64"                                    Name="coordinates"                                                      NumberOfComponents=" 3" format="ascii">
              0.133000000               0.000000000               0.000000000               0.155937500               0.000000000               0.000000000               0.178875000               0.000000000               0.000000000               0.201812500               0.000000000               0.000000000               0.224750000               0.000000000               0.000000000               0.247687500               0.000000000               0.000000000               0.270625000               0.000000000               0.000000000               0.293562500               0.000000000               0.000000000               0.316500000               0.000000000               0.000000000               0.339437500               0.000000000               0.000000000               0.362375000               0.000000000               0.000000000               0.385312500               0.000000000               0.000000000               0.408250000               0.000000000               0.000000000               0.431187500               0.000000000               0.000000000               0.454125000               0.000000000               0.000000000               0.477062500               0.000000000               0.000000000               0.500000000               0.000000000               0.000000000               0.132359569               0.013036280               0.000000000               0.155337096               0.016127762               0.000000000               0.178314623               0.019219245               0.000000000               0.201292150               0.022310727               0.000000000               0.224269676               0.025402210               0.000000000               0.247247203               0.028493692               0.000000000               0.270224730               0.031585175               0.000000000               0.293202257               0.034676657               0.000000000               0.316179784               0.037768140               0.000000000               0.339157311               0.040859622               0.000000000               0.362134838               0.043951105               0.000000000               0.385112365               0.047042587               0.000000000               0.408089892               0.050134070               0.000000000               0.431067419               0.053225552               0.000000000               0.454044946               0.056317035               0.000000000               0.477022473               0.059408517               0.000000000               0.500000000               0.062500000               0.000000000               0.130444442               0.025947013               0.000000000               0.153541665               0.032137825               0.000000000               0.176638887               0.038328636               0.000000000               0.199736109               0.044519448               0.000000000               0.222833332               0.050710260               0.000000000               0.245930554               0.056901071               0.000000000               0.269027776               0.063091883               0.000000000               0.292124999               0.069282695               0.000000000               0.315222221               0.075473506               0.000000000               0.338319444               0.081664318               0.000000000               0.361416666               0.087855130               0.000000000               0.384513888               0.094045942               0.000000000               0.407611111               0.100236753               0.000000000               0.430708333               0.106427565               0.000000000               0.453805555               0.112618377               0.000000000               0.476902778               0.118809188               0.000000000               0.500000000               0.125000000               0.000000000               0.127273065               0.038607862               0.000000000               0.150568498               0.047913621               0.000000000               0.173863932               0.057219379               0.000000000               0.197159365               0.066525138               0.000000000               0.220454798               0.075830897               0.000000000               0.243750232               0.085136655               0.000000000               0.267045665               0.094442414               0.000000000               0.290341099               0.103748172               0.000000000               0.313636532               0.113053931               0.000000000               0.336931966               0.122359690               0.000000000               0.360227399               0.131665448               0.000000000               0.383522833               0.140971207               0.000000000               0.406818266               0.150276966               0.000000000               0.430113700               0.159582724               0.000000000               0.453409133               0.168888483               0.000000000               0.476704567               0.178194241               0.000000000               0.500000000               0.187500000               0.000000000               0.122875978               0.050896897               0.000000000               0.146446229               0.063340840               0.000000000               0.170016481               0.075784784               0.000000000               0.193586732               0.088228728               0.000000000               0.217156983               0.100672672               0.000000000               0.240727235               0.113116616               0.000000000               0.264297486               0.125560560               0.000000000               0.287867738               0.138004504               0.000000000               0.311437989               0.150448448               0.000000000               0.335008240               0.162892392               0.000000000               0.358578492               0.175336336               0.000000000               0.382148743               0.187780280               0.000000000               0.405718994               0.200224224               0.000000000               0.429289246               0.212668168               0.000000000               0.452859497               0.225112112               0.000000000               0.476429749               0.237556056               0.000000000               0.500000000               0.250000000               0.000000000               0.117295528               0.062695766               0.000000000               0.141214558               0.078308531               0.000000000               0.165133587               0.093921295               0.000000000               0.189052617               0.109534060               0.000000000               0.212971646               0.125146824               0.000000000               0.236890676               0.140759589               0.000000000               0.260809705               0.156372354               0.000000000               0.284728735               0.171985118               0.000000000               0.308647764               0.187597883               0.000000000               0.332566794               0.203210648               0.000000000               0.356485823               0.218823412               0.000000000               0.380404853               0.234436177               0.000000000               0.404323882               0.250048941               0.000000000               0.428242912               0.265661706               0.000000000               0.452161941               0.281274471               0.000000000               0.476080971               0.296887235               0.000000000               0.500000000               0.312500000               0.000000000               0.110585458               0.073890841               0.000000000               0.134923867               0.092710163               0.000000000               0.159262276               0.111529486               0.000000000               0.183600685               0.130348808               0.000000000               0.207939094               0.149168131               0.000000000               0.232277503               0.167987453               0.000000000               0.256615912               0.186806776               0.000000000               0.280954320               0.205626098               0.000000000               0.305292729               0.224445420               0.000000000               0.329631138               0.243264743               0.000000000               0.353969547               0.262084065               0.000000000               0.378307956               0.280903388               0.000000000               0.402646365               0.299722710               0.000000000               0.426984773               0.318542033               0.000000000               0.451323182               0.337361355               0.000000000               0.475661591               0.356180678               0.000000000               0.500000000               0.375000000               0.000000000               0.102810390               0.084374307               0.000000000               0.127634741               0.106444663               0.000000000               0.152459092               0.128515018               0.000000000               0.177283442               0.150585374               0.000000000               0.202107793               0.172655730               0.000000000               0.226932143               0.194726086               0.000000000               0.251756494               0.216796442               0.000000000               0.276580845               0.238866798               0.000000000               0.301405195               0.260937153               0.000000000               0.326229546               0.283007509               0.000000000               0.351053896               0.305077865               0.000000000               0.375878247               0.327148221               0.000000000               0.400702598               0.349218577               0.000000000               0.425526948               0.371288933               0.000000000               0.450351299               0.393359288               0.000000000               0.475175649               0.415429644               0.000000000               0.500000000               0.437500000               0.000000000               0.094045202               0.094045202               0.000000000               0.119417377               0.119417377               0.000000000               0.144789552               0.144789552               0.000000000               0.170161727               0.170161727               0.000000000               0.195533901               0.195533901               0.000000000               0.220906076               0.220906076               0.000000000               0.246278251               0.246278251               0.000000000               0.271650426               0.271650426               0.000000000               0.297022601               0.297022601               0.000000000               0.322394776               0.322394776               0.000000000               0.347766951               0.347766951               0.000000000               0.373139126               0.373139126               0.000000000               0.398511300               0.398511300               0.000000000               0.423883475               0.423883475               0.000000000               0.449255650               0.449255650               0.000000000               0.474627825               0.474627825               0.000000000               0.500000000               0.500000000               0.000000000               0.084374307               0.102810390               0.000000000               0.106444663               0.127634741               0.000000000               0.128515018               0.152459092               0.000000000               0.150585374               0.177283442               0.000000000               0.172655730               0.202107793               0.000000000               0.194726086               0.226932143               0.000000000               0.216796442               0.251756494               0.000000000               0.238866798               0.276580845               0.000000000               0.260937153               0.301405195               0.000000000               0.283007509               0.326229546               0.000000000               0.305077865               0.351053896               0.000000000               0.327148221               0.375878247               0.000000000               0.349218577               0.400702598               0.000000000               0.371288933               0.425526948               0.000000000               0.393359288               0.450351299               0.000000000               0.415429644               0.475175649               0.000000000               0.437500000               0.500000000               0.000000000               0.073890841               0.110585458               0.000000000               0.092710163               0.134923867               0.000000000               0.111529486               0.159262276               0.000000000               0.130348808               0.183600685               0.000000000               0.149168131               0.207939094               0.000000000               0.167987453               0.232277503               0.000000000               0.186806776               0.256615912               0.000000000               0.205626098               0.280954320               0.000000000               0.224445420               0.305292729               0.000000000               0.243264743               0.329631138               0.000000000               0.262084065               0.353969547               0.000000000               0.280903388               0.378307956               0.000000000               0.299722710               0.402646365               0.000000000               0.318542033               0.426984773               0.000000000               0.337361355               0.451323182               0.000000000               0.356180678               0.475661591               0.000000000               0.375000000               0.500000000               0.000000000               0.062695766               0.117295528               0.000000000               0.078308531               0.141214558               0.000000000               0.093921295               0.165133587               0.000000000               0.109534060               0.189052617               0.000000000               0.125146824               0.212971646               0.000000000               0.140759589               0.236890676               0.000000000               0.156372354               0.260809705               0.000000000               0.171985118               0.284728735               0.000000000               0.187597883               0.308647764               0.000000000               0.203210648               0.332566794               0.000000000               0.218823412               0.356485823               0.000000000               0.234436177               0.380404853               0.000000000               0.250048941               0.404323882               0.000000000               0.265661706               0.428242912               0.000000000               0.281274471               0.452161941               0.000000000               0.296887235               0.476080971               0.000000000               0.312500000               0.500000000               0.000000000               0.050896897               0.122875978               0.000000000               0.063340840               0.146446229               0.000000000               0.075784784               0.170016481               0.000000000               0.088228728               0.193586732               0.000000000               0.100672672               0.217156983               0.000000000               0.113116616               0.240727235               0.000000000               0.125560560               0.264297486               0.000000000               0.138004504               0.287867738               0.000000000               0.150448448               0.311437989               0.000000000               0.162892392               0.335008240               0.000000000               0.175336336               0.358578492               0.000000000               0.187780280               0.382148743               0.000000000               0.200224224               0.405718994               0.000000000               0.212668168               0.429289246               0.000000000               0.225112112               0.452859497               0.000000000               0.237556056               0.476429749               0.000000000               0.250000000               0.500000000               0.000000000               0.038607862               0.127273065               0.000000000               0.047913621               0.150568498               0.000000000               0.057219379               0.173863932               0.000000000               0.066525138               0.197159365               0.000000000               0.075830897               0.220454798               0.000000000               0.085136655               0.243750232               0.000000000               0.094442414               0.267045665               0.000000000               0.103748172               0.290341099               0.000000000               0.113053931               0.313636532               0.000000000               0.122359690               0.336931966               0.000000000               0.131665448               0.360227399               0.000000000               0.140971207               0.383522833               0.000000000               0.150276966               0.406818266               0.000000000               0.159582724               0.430113700               0.000000000               0.168888483               0.453409133               0.000000000               0.178194241               0.476704567               0.000000000               0.187500000               0.500000000               0.000000000               0.025947013               0.130444442               0.000000000               0.032137825               0.153541665               0.000000000               0.038328636               0.176638887               0.000000000               0.044519448               0.199736109               0.000000000               0.050710260               0.222833332               0.000000000               0.056901071               0.245930554               0.000000000               0.063091883               0.269027776               0.000000000               0.069282695               0.292124999               0.000000000               0.075473506               0.315222221               0.000000000               0.081664318               0.338319444               0.000000000               0.087855130               0.361416666               0.000000000               0.094045942               0.384513888               0.000000000               0.100236753               0.407611111               0.000000000               0.106427565               0.430708333               0.000000000               0.112618377               0.453805555               0.000000000               0.118809188               0.476902778               0.000000000               0.125000000               0.500000000               0.000000000               0.013036280               0.132359569               0.000000000               0.016127762               0.155337096               0.000000000               0.019219245               0.178314623               0.000000000               0.022310727               0.201292150               0.000000000               0.025402210               0.224269676               0.000000000               0.028493692               0.247247203               0.000000000               0.031585175               0.270224730               0.000000000               0.034676657               0.293202257               0.000000000               0.037768140               0.316179784               0.000000000               0.040859622               0.339157311               0.000000000               0.043951105               0.362134838               0.000000000               0.047042587               0.385112365               0.000000000               0.050134070               0.408089892               0.000000000               0.053225552               0.431067419               0.000000000               0.056317035               0.454044946               0.000000000               0.059408517               0.477022473               0.000000000               0.062500000               0.500000000               0.000000000               0.000000000               0.133000000               0.000000000               0.000000000               0.155937500               0.000000000               0.000000000               0.178875000               0.000000000               0.000000000               0.201812500               0.000000000               0.000000000               0.224750000               0.000000000               0.000000000               0.247687500               0.000000000               0.000000000               0.270625000               0.000000000               0.000000000               0.293562500               0.000000000               0.000000000               0.316500000               0.000000000               0.000000000               0.339437500               0.000000000               0.000000000               0.362375000               0.000000000               0.000000000               0.385312500               0.000000000               0.000000000               0.408250000               0.000000000               0.000000000               0.431187500               0.000000000               0.000000000               0.454125000               0.000000000               0.000000000               0.477062500               0.000000000               0.000000000               0.500000000               0.000000000               0.133000000               0.000000000               0.000000000               0.155937500               0.000000000               0.000000000               0.178875000               0.000000000               0.000000000               0.201812500               0.000000000               0.000000000               0.224750000               0.000000000               0.000000000               0.247687500               0.000000000               0.000000000               0.270625000               0.000000000               0.000000000               0.293562500               0.000000000               0.000000000               0.316500000               0.000000000               0.000000000               0.339437500               0.000000000               0.000000000               0.362375000               0.000000000               0.000000000               0.385312500               0.000000000               0.000000000               0.408250000               0.000000000               0.000000000               0.431187500               0.000000000               0.000000000               0.454125000               0.000000000               0.000000000               0.477062500               0.000000000               0.000000000               0.500000000               0.000000000               0.000000000               0.132359569              -0.013036280               0.000000000               0.155337096              -0.016127762               0.000000000               0.178314623              -0.019219245               0.000000000               0.201292150              -0.022310727               0.000000000               0.224269676              -0.025402210               0.000000000               0.247247203              -0.028493692               0.000000000               0.270224730              -0.031585175               0.000000000               0.293202257              -0.034676657               0.000000000               0.316179784              -0.037768140               0.000000000               0.339157311              -0.040859622               0.000000000               0.362134838              -0.043951105               0.000000000               0.385112365              -0.047042587               0.000000000               0.408089892              -0.050134070               0.000000000               0.431067419              -0.053225552               0.000000000               0.454044946              -0.056317035               0.000000000               0.477022473              -0.059408517               0.000000000               0.500000000              -0.062500000               0.000000000               0.130444442              -0.025947013               0.000000000               0.153541665              -0.032137825               0.000000000               0.176638887              -0.038328636               0.000000000               0.199736109              -0.044519448               0.000000000               0.222833332              -0.050710260               0.000000000               0.245930554              -0.056901071               0.000000000               0.269027776              -0.063091883               0.000000000               0.292124999              -0.069282695               0.000000000               0.315222221              -0.075473506               0.000000000               0.338319444              -0.081664318               0.000000000               0.361416666              -0.087855130               0.000000000               0.384513888              -0.094045942               0.000000000               0.407611111              -0.100236753               0.000000000               0.430708333              -0.106427565               0.000000000               0.453805555              -0.112618377               0.000000000               0.476902778              -0.118809188               0.000000000               0.500000000              -0.125000000               0.000000000               0.127273065              -0.038607862               0.000000000               0.150568498              -0.047913621               0.000000000               0.173863932              -0.057219379               0.000000000               0.197159365              -0.066525138               0.000000000               0.220454798              -0.075830897               0.000000000               0.243750232              -0.085136655               0.000000000               0.267045665              -0.094442414               0.000000000               0.290341099              -0.103748172               0.000000000               0.313636532              -0.113053931               0.000000000               0.336931966              -0.122359690               0.000000000               0.360227399              -0.131665448               0.000000000               0.383522833              -0.140971207               0.000000000               0.406818266              -0.150276966               0.000000000               0.430113700              -0.159582724               0.000000000               0.453409133              -0.168888483               0.000000000               0.476704567              -0.178194241               0.000000000               0.500000000              -0.187500000               0.000000000               0.122875978              -0.050896897               0.000000000               0.146446229              -0.063340840               0.000000000               0.170016481              -0.075784784               0.000000000               0.193586732              -0.088228728               0.000000000               0.217156983              -0.100672672               0.000000000               0.240727235              -0.113116616               0.000000000               0.264297486              -0.125560560               0.000000000               0.287867738              -0.138004504               0.000000000               0.311437989              -0.150448448               0.000000000               0.335008240              -0.162892392               0.000000000               0.358578492              -0.175336336               0.000000000               0.382148743              -0.187780280               0.000000000               0.405718994              -0.200224224               0.000000000               0.429289246              -0.212668168               0.000000000               0.452859497              -0.225112112               0.000000000               0.476429749              -0.237556056               0.000000000               0.500000000              -0.250000000               0.000000000               0.117295528              -0.062695766               0.000000000               0.141214558              -0.078308531               0.000000000               0.165133587              -0.093921295               0.000000000               0.189052617              -0.109534060               0.000000000               0.212971646              -0.125146824               0.000000000               0.236890676              -0.140759589               0.000000000               0.260809705              -0.156372354               0.000000000               0.284728735              -0.171985118               0.000000000               0.308647764              -0.187597883               0.000000000               0.332566794              -0.203210648               0.000000000               0.356485823              -0.218823412               0.000000000               0.380404853              -0.234436177               0.000000000               0.404323882              -0.250048941               0.000000000               0.428242912              -0.265661706               0.000000000               0.452161941              -0.281274471               0.000000000               0.476080971              -0.296887235               0.000000000               0.500000000              -0.312500000               0.000000000               0.110585458              -0.073890841               0.000000000               0.134923867              -0.092710163               0.000000000               0.159262276              -0.111529486               0.000000000               0.183600685              -0.130348808               0.000000000               0.207939094              -0.149168131               0.000000000               0.232277503              -0.167987453               0.000000000               0.256615912              -0.186806776               0.000000000               0.280954320              -0.205626098               0.000000000               0.305292729              -0.224445420               0.000000000               0.329631138              -0.243264743               0.000000000               0.353969547              -0.262084065               0.000000000               0.378307956              -0.280903388               0.000000000               0.402646365              -0.299722710               0.000000000               0.426984773              -0.318542033               0.000000000               0.451323182              -0.337361355               0.000000000               0.475661591              -0.356180678               0.000000000               0.500000000              -0.375000000               0.000000000               0.102810390              -0.084374307               0.000000000               0.127634741              -0.106444663               0.000000000               0.152459092              -0.128515018               0.000000000               0.177283442              -0.150585374               0.000000000               0.202107793              -0.172655730               0.000000000               0.226932143              -0.194726086               0.000000000               0.251756494              -0.216796442               0.000000000               0.276580845              -0.238866798               0.000000000               0.301405195              -0.260937153               0.000000000               0.326229546              -0.283007509               0.000000000               0.351053896              -0.305077865               0.000000000               0.375878247              -0.327148221               0.000000000               0.400702598              -0.349218577               0.000000000               0.425526948              -0.371288933               0.000000000               0.450351299              -0.393359288               0.000000000               0.475175649              -0.415429644               0.000000000               0.500000000              -0.437500000               0.000000000               0.094045202              -0.094045202               0.000000000               0.119417377              -0.119417377               0.000000000               0.144789552              -0.144789552               0.000000000               0.170161727              -0.170161727               0.000000000               0.195533901              -0.195533901               0.000000000               0.220906076              -0.220906076               0.000000000               0.246278251              -0.246278251               0.000000000               0.271650426              -0.271650426               0.000000000               0.297022601              -0.297022601               0.000000000               0.322394776              -0.322394776               0.000000000               0.347766951              -0.347766951               0.000000000               0.373139126              -0.373139126               0.000000000               0.398511300              -0.398511300               0.000000000               0.423883475              -0.423883475               0.000000000               0.449255650              -0.449255650               0.000000000               0.474627825              -0.474627825               0.000000000               0.500000000              -0.500000000               0.000000000               0.084374307              -0.102810390               0.000000000               0.106444663              -0.127634741               0.000000000               0.128515018              -0.152459092               0.000000000               0.150585374              -0.177283442               0.000000000               0.172655730              -0.202107793               0.000000000               0.194726086              -0.226932143               0.000000000               0.216796442              -0.251756494               0.000000000               0.238866798              -0.276580845               0.000000000               0.260937153              -0.301405195               0.000000000               0.283007509              -0.326229546               0.000000000               0.305077865              -0.351053896               0.000000000               0.327148221              -0.375878247               0.000000000               0.349218577              -0.400702598               0.000000000               0.371288933              -0.425526948               0.000000000               0.393359288              -0.450351299               0.000000000               0.415429644              -0.475175649               0.000000000               0.437500000              -0.500000000               0.000000000               0.073890841              -0.110585458               0.000000000               0.092710163              -0.134923867               0.000000000               0.111529486              -0.159262276               0.000000000               0.130348808              -0.183600685               0.000000000               0.149168131              -0.207939094               0.000000000               0.167987453              -0.232277503               0.000000000               0.186806776              -0.256615912               0.000000000               0.205626098              -0.280954320               0.000000000               0.224445420              -0.305292729               0.000000000               0.243264743              -0.329631138               0.000000000               0.262084065              -0.353969547               0.000000000               0.280903388              -0.378307956               0.000000000               0.299722710              -0.402646365               0.000000000               0.318542033              -0.426984773               0.000000000               0.337361355              -0.451323182               0.000000000               0.356180678              -0.475661591               0.000000000               0.375000000              -0.500000000               0.000000000               0.062695766              -0.117295528               0.000000000               0.078308531              -0.141214558               0.000000000               0.093921295              -0.165133587               0.000000000               0.109534060              -0.189052617               0.000000000               0.125146824              -0.212971646               0.000000000               0.140759589              -0.236890676               0.000000000               0.156372354              -0.260809705               0.000000000               0.171985118              -0.284728735               0.000000000               0.187597883              -0.308647764               0.000000000               0.203210648              -0.332566794               0.000000000               0.218823412              -0.356485823               0.000000000               0.234436177              -0.380404853               0.000000000               0.250048941              -0.404323882               0.000000000               0.265661706              -0.428242912               0.000000000               0.281274471              -0.452161941               0.000000000               0.296887235              -0.476080971               0.000000000               0.312500000              -0.500000000               0.000000000               0.050896897              -0.122875978               0.000000000               0.063340840              -0.146446229               0.000000000               0.075784784              -0.170016481               0.000000000               0.088228728              -0.193586732               0.000000000               0.100672672              -0.217156983               0.000000000               0.113116616              -0.240727235               0.000000000               0.125560560              -0.264297486               0.000000000               0.138004504              -0.287867738               0.000000000               0.150448448              -0.311437989               0.000000000               0.162892392              -0.335008240               0.000000000               0.175336336              -0.358578492               0.000000000               0.187780280              -0.382148743               0.000000000               0.200224224              -0.405718994               0.000000000               0.212668168              -0.429289246               0.000000000               0.225112112              -0.452859497               0.000000000               0.237556056              -0.476429749               0.000000000               0.250000000              -0.500000000               0.000000000               0.038607862              -0.127273065               0.000000000               0.047913621              -0.150568498               0.000000000               0.057219379              -0.173863932               0.000000000               0.066525138              -0.197159365               0.000000000               0.075830897              -0.220454798               0.000000000               0.085136655              -0.243750232               0.000000000               0.094442414              -0.267045665               0.000000000               0.103748172              -0.290341099               0.000000000               0.113053931              -0.313636532               0.000000000               0.122359690              -0.336931966               0.000000000               0.131665448              -0.360227399               0.000000000               0.140971207              -0.383522833               0.000000000               0.150276966              -0.406818266               0.000000000               0.159582724              -0.430113700               0.000000000               0.168888483              -0.453409133               0.000000000               0.178194241              -0.476704567               0.000000000               0.187500000              -0.500000000               0.000000000               0.025947013              -0.130444442               0.000000000               0.032137825              -0.153541665               0.000000000               0.038328636              -0.176638887               0.000000000               0.044519448              -0.199736109               0.000000000               0.050710260              -0.222833332               0.000000000               0.056901071              -0.245930554               0.000000000               0.063091883              -0.269027776               0.000000000               0.069282695              -0.292124999               0.000000000               0.075473506              -0.315222221               0.000000000               0.081664318              -0.338319444               0.000000000               0.087855130              -0.361416666               0.000000000               0.094045942              -0.384513888               0.000000000               0.100236753              -0.407611111               0.000000000               0.106427565              -0.430708333               0.000000000               0.112618377              -0.453805555               0.000000000               0.118809188              -0.476902778               0.000000000               0.125000000              -0.500000000               0.000000000               0.013036280              -0.132359569               0.000000000               0.016127762              -0.155337096               0.000000000               0.019219245              -0.178314623               0.000000000               0.022310727              -0.201292150               0.000000000               0.025402210              -0.224269676               0.000000000               0.028493692              -0.247247203               0.000000000               0.031585175              -0.270224730               0.000000000               0.034676657              -0.293202257               0.000000000               0.037768140              -0.316179784               0.000000000               0.040859622              -0.339157311               0.000000000               0.043951105              -0.362134838               0.000000000               0.047042587              -0.385112365               0.000000000               0.050134070              -0.408089892               0.000000000               0.053225552              -0.431067419               0.000000000               0.056317035              -0.454044946               0.000000000               0.059408517              -0.477022473               0.000000000               0.062500000              -0.500000000               0.000000000               0.000000000              -0.133000000               0.000000000               0.000000000              -0.155937500               0.000000000               0.000000000              -0.178875000               0.000000000               0.000000000              -0.201812500               0.000000000               0.000000000              -0.224750000               0.000000000               0.000000000              -0.247687500               0.000000000               0.000000000              -0.270625000               0.000000000               0.000000000              -0.293562500               0.000000000               0.000000000              -0.316500000               0.000000000               0.000000000              -0.339437500               0.000000000               0.000000000              -0.362375000               0.000000000               0.000000000              -0.385312500               0.000000000               0.000000000              -0.408250000               0.000000000               0.000000000              -0.431187500               0.000000000               0.000000000              -0.454125000               0.000000000               0.000000000              -0.477062500               0.000000000               0.000000000              -0.500000000               0.000000000              -0.133000000               0.000000000               0.000000000              -0.155937500               0.000000000               0.000000000              -0.178875000               0.000000000               0.000000000              -0.201812500               0.000000000               0.000000000              -0.224750000               0.000000000               0.000000000              -0.247687500               0.000000000               0.000000000              -0.270625000               0.000000000               0.000000000              -0.293562500               0.000000000               0.000000000              -0.316500000               0.000000000               0.000000000              -0.339437500               0.000000000               0.000000000              -0.362375000               0.000000000               0.000000000              -0.385312500               0.000000000               0.000000000              -0.408250000               0.000000000               0.000000000              -0.431187500               0.000000000               0.000000000              -0.454125000               0.000000000               0.000000000              -0.477062500               0.000000000               0.000000000              -0.500000000               0.000000000               0.000000000              -0.132359569              -0.013036280               0.000000000              -0.155337096              -0.016127762               0.000000000              -0.178314623              -0.019219245               0.000000000              -0.201292150              -0.022310727               0.000000000              -0.224269676              -0.025402210               0.000000000              -0.247247203              -0.028493692               0.000000000              -0.270224730              -0.031585175               0.000000000              -0.293202257              -0.034676657               0.000000000              -0.316179784              -0.037768140               0.000000000              -0.339157311              -0.040859622               0.000000000              -0.362134838              -0.043951105               0.000000000              -0.385112365              -0.047042587               0.000000000              -0.408089892              -0.050134070               0.000000000              -0.431067419              -0.053225552               0.000000000              -0.454044946              -0.056317035               0.000000000              -0.477022473              -0.059408517               0.000000000              -0.500000000              -0.062500000               0.000000000              -0.130444442              -0.025947013               0.000000000              -0.153541665              -0.032137825               0.000000000              -0.176638887              -0.038328636               0.000000000              -0.199736109              -0.044519448               0.000000000              -0.222833332              -0.050710260               0.000000000              -0.245930554              -0.056901071               0.000000000              -0.269027776              -0.063091883               0.000000000              -0.292124999              -0.069282695               0.000000000              -0.315222221              -0.075473506               0.000000000              -0.338319444              -0.081664318               0.000000000              -0.361416666              -0.087855130               0.000000000              -0.384513888              -0.094045942               0.000000000              -0.407611111              -0.100236753               0.000000000              -0.430708333              -0.106427565               0.000000000              -0.453805555              -0.112618377               0.000000000              -0.476902778              -0.118809188               0.000000000              -0.500000000              -0.125000000               0.000000000              -0.127273065              -0.038607862               0.000000000              -0.150568498              -0.047913621               0.000000000              -0.173863932              -0.057219379               0.000000000              -0.197159365              -0.066525138               0.000000000              -0.220454798              -0.075830897               0.000000000              -0.243750232              -0.085136655               0.000000000              -0.267045665              -0.094442414               0.000000000              -0.290341099              -0.103748172               0.000000000              -0.313636532              -0.113053931               0.000000000              -0.336931966              -0.122359690               0.000000000              -0.360227399              -0.131665448               0.000000000              -0.383522833              -0.140971207               0.000000000              -0.406818266              -0.150276966               0.000000000              -0.430113700              -0.159582724               0.000000000              -0.453409133              -0.168888483               0.000000000              -0.476704567              -0.178194241               0.000000000              -0.500000000              -0.187500000               0.000000000              -0.122875978              -0.050896897               0.000000000              -0.146446229              -0.063340840               0.000000000              -0.170016481              -0.075784784               0.000000000              -0.193586732              -0.088228728               0.000000000              -0.217156983              -0.100672672               0.000000000              -0.240727235              -0.113116616               0.000000000              -0.264297486              -0.125560560               0.000000000              -0.287867738              -0.138004504               0.000000000              -0.311437989              -0.150448448               0.000000000              -0.335008240              -0.162892392               0.000000000              -0.358578492              -0.175336336               0.000000000              -0.382148743              -0.187780280               0.000000000              -0.405718994              -0.200224224               0.000000000              -0.429289246              -0.212668168               0.000000000              -0.452859497              -0.225112112               0.000000000              -0.476429749              -0.237556056               0.000000000              -0.500000000              -0.250000000               0.000000000              -0.117295528              -0.062695766               0.000000000              -0.141214558              -0.078308531               0.000000000              -0.165133587              -0.093921295               0.000000000              -0.189052617              -0.109534060               0.000000000              -0.212971646              -0.125146824               0.000000000              -0.236890676              -0.140759589               0.000000000              -0.260809705              -0.156372354               0.000000000              -0.284728735              -0.171985118               0.000000000              -0.308647764              -0.187597883               0.000000000              -0.332566794              -0.203210648               0.000000000              -0.356485823              -0.218823412               0.000000000              -0.380404853              -0.234436177               0.000000000              -0.404323882              -0.250048941               0.000000000              -0.428242912              -0.265661706               0.000000000              -0.452161941              -0.281274471               0.000000000              -0.476080971              -0.296887235               0.000000000              -0.500000000              -0.312500000               0.000000000              -0.110585458              -0.073890841               0.000000000              -0.134923867              -0.092710163               0.000000000              -0.159262276              -0.111529486               0.000000000              -0.183600685              -0.130348808               0.000000000              -0.207939094              -0.149168131               0.000000000              -0.232277503              -0.167987453               0.000000000              -0.256615912              -0.186806776               0.000000000              -0.280954320              -0.205626098               0.000000000              -0.305292729              -0.224445420               0.000000000              -0.329631138              -0.243264743               0.000000000              -0.353969547              -0.262084065               0.000000000              -0.378307956              -0.280903388               0.000000000              -0.402646365              -0.299722710               0.000000000              -0.426984773              -0.318542033               0.000000000              -0.451323182              -0.337361355               0.000000000              -0.475661591              -0.356180678               0.000000000              -0.500000000              -0.375000000               0.000000000              -0.102810390              -0.084374307               0.000000000              -0.127634741              -0.106444663               0.000000000              -0.152459092              -0.128515018               0.000000000              -0.177283442              -0.150585374               0.000000000              -0.202107793              -0.172655730               0.000000000              -0.226932143              -0.194726086               0.000000000              -0.251756494              -0.216796442               0.000000000              -0.276580845              -0.238866798               0.000000000              -0.301405195              -0.260937153               0.000000000              -0.326229546              -0.283007509               0.000000000              -0.351053896              -0.305077865               0.000000000              -0.375878247              -0.327148221               0.000000000              -0.400702598              -0.349218577               0.000000000              -0.425526948              -0.371288933               0.000000000              -0.450351299              -0.393359288               0.000000000              -0.475175649              -0.415429644               0.000000000              -0.500000000              -0.437500000               0.000000000              -0.094045202              -0.094045202               0.000000000              -0.119417377              -0.119417377               0.000000000              -0.144789552              -0.144789552               0.000000000              -0.170161727              -0.170161727               0.000000000              -0.195533901              -0.195533901               0.000000000              -0.220906076              -0.220906076               0.000000000              -0.246278251              -0.246278251               0.000000000              -0.271650426              -0.271650426               0.000000000              -0.297022601              -0.297022601               0.000000000              -0.322394776              -0.322394776               0.000000000              -0.347766951              -0.347766951               0.000000000              -0.373139126              -0.373139126               0.000000000              -0.398511300              -0.398511300               0.000000000              -0.423883475              -0.423883475               0.000000000              -0.449255650              -0.449255650               0.000000000              -0.474627825              -0.474627825               0.000000000              -0.500000000              -0.500000000               0.000000000              -0.084374307              -0.102810390               0.000000000              -0.106444663              -0.127634741               0.000000000              -0.128515018              -0.152459092               0.000000000              -0.150585374              -0.177283442               0.000000000              -0.172655730              -0.202107793               0.000000000              -0.194726086              -0.226932143               0.000000000              -0.216796442              -0.251756494               0.000000000              -0.238866798              -0.276580845               0.000000000              -0.260937153              -0.301405195               0.000000000              -0.283007509              -0.326229546               0.000000000              -0.305077865              -0.351053896               0.000000000              -0.327148221              -0.375878247               0.000000000              -0.349218577              -0.400702598               0.000000000              -0.371288933              -0.425526948               0.000000000              -0.393359288              -0.450351299               0.000000000              -0.415429644              -0.475175649               0.000000000              -0.437500000              -0.500000000               0.000000000              -0.073890841              -0.110585458               0.000000000              -0.092710163              -0.134923867               0.000000000              -0.111529486              -0.159262276               0.000000000              -0.130348808              -0.183600685               0.000000000              -0.149168131              -0.207939094               0.000000000              -0.167987453              -0.232277503               0.000000000              -0.186806776              -0.256615912               0.000000000              -0.205626098              -0.280954320               0.000000000              -0.224445420              -0.305292729               0.000000000              -0.243264743              -0.329631138               0.000000000              -0.262084065              -0.353969547               0.000000000              -0.280903388              -0.378307956               0.000000000              -0.299722710              -0.402646365               0.000000000              -0.318542033              -0.426984773               0.000000000              -0.337361355              -0.451323182               0.000000000              -0.356180678              -0.475661591               0.000000000              -0.375000000              -0.500000000               0.000000000              -0.062695766              -0.117295528               0.000000000              -0.078308531              -0.141214558               0.000000000              -0.093921295              -0.165133587               0.000000000              -0.109534060              -0.189052617               0.000000000              -0.125146824              -0.212971646               0.000000000              -0.140759589              -0.236890676               0.000000000              -0.156372354              -0.260809705               0.000000000              -0.171985118              -0.284728735               0.000000000              -0.187597883              -0.308647764               0.000000000              -0.203210648              -0.332566794               0.000000000              -0.218823412              -0.356485823               0.000000000              -0.234436177              -0.380404853               0.000000000              -0.250048941              -0.404323882               0.000000000              -0.265661706              -0.428242912               0.000000000              -0.281274471              -0.452161941               0.000000000              -0.296887235              -0.476080971               0.000000000              -0.312500000              -0.500000000               0.000000000              -0.050896897              -0.122875978               0.000000000              -0.063340840              -0.146446229               0.000000000              -0.075784784              -0.170016481               0.000000000              -0.088228728              -0.193586732               0.000000000              -0.100672672              -0.217156983               0.000000000              -0.113116616              -0.240727235               0.000000000              -0.125560560              -0.264297486               0.000000000              -0.138004504              -0.287867738               0.000000000              -0.150448448              -0.311437989               0.000000000              -0.162892392              -0.335008240               0.000000000              -0.175336336              -0.358578492               0.000000000              -0.187780280              -0.382148743               0.000000000              -0.200224224              -0.405718994               0.000000000              -0.212668168              -0.429289246               0.000000000              -0.225112112              -0.452859497               0.000000000              -0.237556056              -0.476429749               0.000000000              -0.250000000              -0.500000000               0.000000000              -0.038607862              -0.127273065               0.000000000              -0.047913621              -0.150568498               0.000000000              -0.057219379              -0.173863932               0.000000000              -0.066525138              -0.197159365               0.000000000              -0.075830897              -0.220454798               0.000000000              -0.085136655              -0.243750232               0.000000000              -0.094442414              -0.267045665               0.000000000              -0.103748172              -0.290341099               0.000000000              -0.113053931              -0.313636532               0.000000000              -0.122359690              -0.336931966               0.000000000              -0.131665448              -0.360227399               0.000000000              -0.140971207              -0.383522833               0.000000000              -0.150276966              -0.406818266               0.000000000              -0.159582724              -0.430113700               0.000000000              -0.168888483              -0.453409133               0.000000000              -0.178194241              -0.476704567               0.000000000              -0.187500000              -0.500000000               0.000000000              -0.025947013              -0.130444442               0.000000000              -0.032137825              -0.153541665               0.000000000              -0.038328636              -0.176638887               0.000000000              -0.044519448              -0.199736109               0.000000000              -0.050710260              -0.222833332               0.000000000              -0.056901071              -0.245930554               0.000000000              -0.063091883              -0.269027776               0.000000000              -0.069282695              -0.292124999               0.000000000              -0.075473506              -0.315222221               0.000000000              -0.081664318              -0.338319444               0.000000000              -0.087855130              -0.361416666               0.000000000              -0.094045942              -0.384513888               0.000000000              -0.100236753              -0.407611111               0.000000000              -0.106427565              -0.430708333               0.000000000              -0.112618377              -0.453805555               0.000000000              -0.118809188              -0.476902778               0.000000000              -0.125000000              -0.500000000               0.000000000              -0.013036280              -0.132359569               0.000000000              -0.016127762              -0.155337096               0.000000000              -0.019219245              -0.178314623               0.000000000              -0.022310727              -0.201292150               0.000000000              -0.025402210              -0.224269676               0.000000000              -0.028493692              -0.247247203               0.000000000              -0.031585175              -0.270224730               0.000000000              -0.034676657              -0.293202257               0.000000000              -0.037768140              -0.316179784               0.000000000              -0.040859622              -0.339157311               0.000000000              -0.043951105              -0.362134838               0.000000000              -0.047042587              -0.385112365               0.000000000              -0.050134070              -0.408089892               0.000000000              -0.053225552              -0.431067419               0.000000000              -0.056317035              -0.454044946               0.000000000              -0.059408517              -0.477022473               0.000000000              -0.062500000              -0.500000000               0.000000000               0.000000000              -0.133000000               0.000000000               0.000000000              -0.155937500               0.000000000               0.000000000              -0.178875000               0.000000000               0.000000000              -0.201812500               0.000000000               0.000000000              -0.224750000               0.000000000               0.000000000              -0.247687500               0.000000000               0.000000000              -0.270625000               0.000000000               0.000000000              -0.293562500               0.000000000               0.000000000              -0.316500000               0.000000000               0.000000000              -0.339437500               0.000000000               0.000000000              -0.362375000               0.000000000               0.000000000              -0.385312500               0.000000000               0.000000000              -0.408250000               0.000000000               0.000000000              -0.431187500               0.000000000               0.000000000              -0.454125000               0.000000000               0.000000000              -0.477062500               0.000000000               0.000000000              -0.500000000               0.000000000              -0.133000000               0.000000000               0.000000000              -0.155937500               0.000000000               0.000000000              -0.178875000               0.000000000               0.000000000              -0.201812500               0.000000000               0.000000000              -0.224750000               0.000000000               0.000000000              -0.247687500               0.000000000               0.000000000              -0.270625000               0.000000000               0.000000000              -0.293562500               0.000000000               0.000000000              -0.316500000               0.000000000               0.000000000              -0.339437500               0.000000000               0.000000000              -0.362375000               0.000000000               0.000000000              -0.385312500               0.000000000               0.000000000              -0.408250000               0.000000000               0.000000000              -0.431187500               0.000000000               0.000000000              -0.454125000               0.000000000               0.000000000              -0.477062500               0.000000000               0.000000000              -0.500000000               0.000000000               0.000000000              -0.132359569               0.013036280               0.000000000              -0.155337096               0.016127762               0.000000000              -0.178314623               0.019219245               0.000000000              -0.201292150               0.022310727               0.000000000              -0.224269676               0.025402210               0.000000000              -0.247247203               0.028493692               0.000000000              -0.270224730               0.031585175               0.000000000              -0.293202257               0.034676657               0.000000000              -0.316179784               0.037768140               0.000000000              -0.339157311               0.040859622               0.000000000              -0.362134838               0.043951105               0.000000000              -0.385112365               0.047042587               0.000000000              -0.408089892               0.050134070               0.000000000              -0.431067419               0.053225552               0.000000000              -0.454044946               0.056317035               0.000000000              -0.477022473               0.059408517               0.000000000              -0.500000000               0.062500000               0.000000000              -0.130444442               0.025947013               0.000000000              -0.153541665               0.032137825               0.000000000              -0.176638887               0.038328636               0.000000000              -0.199736109               0.044519448               0.000000000              -0.222833332               0.050710260               0.000000000              -0.245930554               0.056901071               0.000000000              -0.269027776               0.063091883               0.000000000              -0.292124999               0.069282695               0.000000000              -0.315222221               0.075473506               0.000000000              -0.338319444               0.081664318               0.000000000              -0.361416666               0.087855130               0.000000000              -0.384513888               0.094045942               0.000000000              -0.407611111               0.100236753               0.000000000              -0.430708333               0.106427565               0.000000000              -0.453805555               0.112618377               0.000000000              -0.476902778               0.118809188               0.000000000              -0.500000000               0.125000000               0.000000000              -0.127273065               0.038607862               0.000000000              -0.150568498               0.047913621               0.000000000              -0.173863932               0.057219379               0.000000000              -0.197159365               0.066525138               0.000000000              -0.220454798               0.075830897               0.000000000              -0.243750232               0.085136655               0.000000000              -0.267045665               0.094442414               0.000000000              -0.290341099               0.103748172               0.000000000              -0.313636532               0.113053931               0.000000000              -0.336931966               0.122359690               0.000000000              -0.360227399               0.131665448               0.000000000              -0.383522833               0.140971207               0.000000000              -0.406818266               0.150276966               0.000000000              -0.430113700               0.159582724               0.000000000              -0.453409133               0.168888483               0.000000000              -0.476704567               0.178194241               0.000000000              -0.500000000               0.187500000               0.000000000              -0.122875978               0.050896897               0.000000000              -0.146446229               0.063340840               0.000000000              -0.170016481               0.075784784               0.000000000              -0.193586732               0.088228728               0.000000000              -0.217156983               0.100672672               0.000000000              -0.240727235               0.113116616               0.000000000              -0.264297486               0.125560560               0.000000000              -0.287867738               0.138004504               0.000000000              -0.311437989               0.150448448               0.000000000              -0.335008240               0.162892392               0.000000000              -0.358578492               0.175336336               0.000000000              -0.382148743               0.187780280               0.000000000              -0.405718994               0.200224224               0.000000000              -0.429289246               0.212668168               0.000000000              -0.452859497               0.225112112               0.000000000              -0.476429749               0.237556056               0.000000000              -0.500000000               0.250000000               0.000000000              -0.117295528               0.062695766               0.000000000              -0.141214558               0.078308531               0.000000000              -0.165133587               0.093921295               0.000000000              -0.189052617               0.109534060               0.000000000              -0.212971646               0.125146824               0.000000000              -0.236890676               0.140759589               0.000000000              -0.260809705               0.156372354               0.000000000              -0.284728735               0.171985118               0.000000000              -0.308647764               0.187597883               0.000000000              -0.332566794               0.203210648               0.000000000              -0.356485823               0.218823412               0.000000000              -0.380404853               0.234436177               0.000000000              -0.404323882               0.250048941               0.000000000              -0.428242912               0.265661706               0.000000000              -0.452161941               0.281274471               0.000000000              -0.476080971               0.296887235               0.000000000              -0.500000000               0.312500000               0.000000000              -0.110585458               0.073890841               0.000000000              -0.134923867               0.092710163               0.000000000              -0.159262276               0.111529486               0.000000000              -0.183600685               0.130348808               0.000000000              -0.207939094               0.149168131               0.000000000              -0.232277503               0.167987453               0.000000000              -0.256615912               0.186806776               0.000000000              -0.280954320               0.205626098               0.000000000              -0.305292729               0.224445420               0.000000000              -0.329631138               0.243264743               0.000000000              -0.353969547               0.262084065               0.000000000              -0.378307956               0.280903388               0.000000000              -0.402646365               0.299722710               0.000000000              -0.426984773               0.318542033               0.000000000              -0.451323182               0.337361355               0.000000000              -0.475661591               0.356180678               0.000000000              -0.500000000               0.375000000               0.000000000              -0.102810390               0.084374307               0.000000000              -0.127634741               0.106444663               0.000000000              -0.152459092               0.128515018               0.000000000              -0.177283442               0.150585374               0.000000000              -0.202107793               0.172655730               0.000000000              -0.226932143               0.194726086               0.000000000              -0.251756494               0.216796442               0.000000000              -0.276580845               0.238866798               0.000000000              -0.301405195               0.260937153               0.000000000              -0.326229546               0.283007509               0.000000000              -0.351053896               0.305077865               0.000000000              -0.375878247               0.327148221               0.000000000              -0.400702598               0.349218577               0.000000000              -0.425526948               0.371288933               0.000000000              -0.450351299               0.393359288               0.000000000              -0.475175649               0.415429644               0.000000000              -0.500000000               0.437500000               0.000000000              -0.094045202               0.094045202               0.000000000              -0.119417377               0.119417377               0.000000000              -0.144789552               0.144789552               0.000000000              -0.170161727               0.170161727               0.000000000              -0.195533901               0.195533901               0.000000000              -0.220906076               0.220906076               0.000000000              -0.246278251               0.246278251               0.000000000              -0.271650426               0.271650426               0.000000000              -0.297022601               0.297022601               0.000000000              -0.322394776               0.322394776               0.000000000              -0.347766951               0.347766951               0.000000000              -0.373139126               0.373139126               0.000000000              -0.398511300               0.398511300               0.000000000              -0.423883475               0.423883475               0.000000000              -0.449255650               0.449255650               0.000000000              -0.474627825               0.474627825               0.000000000              -0.500000000               0.500000000               0.000000000              -0.084374307               0.102810390               0.000000000              -0.106444663               0.127634741               0.000000000              -0.128515018               0.152459092               0.000000000              -0.150585374               0.177283442               0.000000000              -0.172655730               0.202107793               0.000000000              -0.194726086               0.226932143               0.000000000              -0.216796442               0.251756494               0.000000000              -0.238866798               0.276580845               0.000000000              -0.260937153               0.301405195               0.000000000              -0.283007509               0.326229546               0.000000000              -0.305077865               0.351053896               0.000000000              -0.327148221               0.375878247               0.000000000              -0.349218577               0.400702598               0.000000000              -0.371288933               0.425526948               0.000000000              -0.393359288               0.450351299               0.000000000              -0.415429644               0.475175649               0.000000000              -0.437500000               0.500000000               0.000000000              -0.073890841               0.110585458               0.000000000              -0.092710163               0.134923867               0.000000000              -0.111529486               0.159262276               0.000000000              -0.130348808               0.183600685               0.000000000              -0.149168131               0.207939094               0.000000000              -0.167987453               0.232277503               0.000000000              -0.186806776               0.256615912               0.000000000              -0.205626098               0.280954320               0.000000000              -0.224445420               0.305292729               0.000000000              -0.243264743               0.329631138               0.000000000              -0.262084065               0.353969547               0.000000000              -0.280903388               0.378307956               0.000000000              -0.299722710               0.402646365               0.000000000              -0.318542033               0.426984773               0.000000000              -0.337361355               0.451323182               0.000000000              -0.356180678               0.475661591               0.000000000              -0.375000000               0.500000000               0.000000000              -0.062695766               0.117295528               0.000000000              -0.078308531               0.141214558               0.000000000              -0.093921295               0.165133587               0.000000000              -0.109534060               0.189052617               0.000000000              -0.125146824               0.212971646               0.000000000              -0.140759589               0.236890676               0.000000000              -0.156372354               0.260809705               0.000000000              -0.171985118               0.284728735               0.000000000              -0.187597883               0.308647764               0.000000000              -0.203210648               0.332566794               0.000000000              -0.218823412               0.356485823               0.000000000              -0.234436177               0.380404853               0.000000000              -0.250048941               0.404323882               0.000000000              -0.265661706               0.428242912               0.000000000              -0.281274471               0.452161941               0.000000000              -0.296887235               0.476080971               0.000000000              -0.312500000               0.500000000               0.000000000              -0.050896897               0.122875978               0.000000000              -0.063340840               0.146446229               0.000000000              -0.075784784               0.170016481               0.000000000              -0.088228728               0.193586732               0.000000000              -0.100672672               0.217156983               0.000000000              -0.113116616               0.240727235               0.000000000              -0.125560560               0.264297486               0.000000000              -0.138004504               0.287867738               0.000000000              -0.150448448               0.311437989               0.000000000              -0.162892392               0.335008240               0.000000000              -0.175336336               0.358578492               0.000000000              -0.187780280               0.382148743               0.000000000              -0.200224224               0.405718994               0.000000000              -0.212668168               0.429289246               0.000000000              -0.225112112               0.452859497               0.000000000              -0.237556056               0.476429749               0.000000000              -0.250000000               0.500000000               0.000000000              -0.038607862               0.127273065               0.000000000              -0.047913621               0.150568498               0.000000000              -0.057219379               0.173863932               0.000000000              -0.066525138               0.197159365               0.000000000              -0.075830897               0.220454798               0.000000000              -0.085136655               0.243750232               0.000000000              -0.094442414               0.267045665               0.000000000              -0.103748172               0.290341099               0.000000000              -0.113053931               0.313636532               0.000000000              -0.122359690               0.336931966               0.000000000              -0.131665448               0.360227399               0.000000000              -0.140971207               0.383522833               0.000000000              -0.150276966               0.406818266               0.000000000              -0.159582724               0.430113700               0.000000000              -0.168888483               0.453409133               0.000000000              -0.178194241               0.476704567               0.000000000              -0.187500000               0.500000000               0.000000000              -0.025947013               0.130444442               0.000000000              -0.032137825               0.153541665               0.000000000              -0.038328636               0.176638887               0.000000000              -0.044519448               0.199736109               0.000000000              -0.050710260               0.222833332               0.000000000              -0.056901071               0.245930554               0.000000000              -0.063091883               0.269027776               0.000000000              -0.069282695               0.292124999               0.000000000              -0.075473506               0.315222221               0.000000000              -0.081664318               0.338319444               0.000000000              -0.087855130               0.361416666               0.000000000              -0.094045942               0.384513888               0.000000000              -0.100236753               0.407611111               0.000000000              -0.106427565               0.430708333               0.000000000              -0.112618377               0.453805555               0.000000000              -0.118809188               0.476902778               0.000000000              -0.125000000               0.500000000               0.000000000              -0.013036280               0.132359569               0.000000000              -0.016127762               0.155337096               0.000000000              -0.019219245               0.178314623               0.000000000              -0.022310727               0.201292150               0.000000000              -0.025402210               0.224269676               0.000000000              -0.028493692               0.247247203               0.000000000              -0.031585175               0.270224730               0.000000000              -0.034676657               0.293202257               0.000000000              -0.037768140               0.316179784               0.000000000              -0.040859622               0.339157311               0.000000000              -0.043951105               0.362134838               0.000000000              -0.047042587               0.385112365               0.000000000              -0.050134070               0.408089892               0.000000000              -0.053225552               0.431067419               0.000000000              -0.056317035               0.454044946               0.000000000              -0.059408517               0.477022473               0.000000000              -0.062500000               0.500000000               0.000000000               0.000000000               0.133000000               0.000000000               0.000000000               0.155937500               0.000000000               0.000000000               0.178875000               0.000000000               0.000000000               0.201812500               0.000000000               0.000000000               0.224750000               0.000000000               0.000000000               0.247687500               0.000000000               0.000000000               0.270625000               0.000000000               0.000000000               0.293562500               0.000000000               0.000000000               0.316500000               0.000000000               0.000000000               0.339437500               0.000000000               0.000000000               0.362375000               0.000000000               0.000000000               0.385312500               0.000000000               0.000000000               0.408250000               0.000000000               0.000000000               0.431187500               0.000000000               0.000000000               0.454125000               0.000000000               0.000000000               0.477062500               0.000000000               0.000000000               0.500000000               0.000000000 </DataArray>
</Points>
<Cells>
<DataArray type="Int32"                                    Name="connectivity"                                                      NumberOfComponents=" 1" format="ascii">
         0          1         18         17          1          2         19         18          2          3         20         19          3          4         21         20          4          5         22         21          5          6         23         22          6          7         24         23          7          8         25         24          8          9         26         25          9         10         27         26         10         11         28         27         11         12         29         28         12         13         30         29         13         14         31         30         14         15         32         31         15         16         33         32         17         18         35         34         18         19         36         35         19         20         37         36         20         21         38         37         21         22         39         38         22         23         40         39         23         24         41         40         24         25         42         41         25         26         43         42         26         27         44         43         27         28         45         44         28         29         46         45         29         30         47         46         30         31         48         47         31         32         49         48         32         33         50         49         34         35         52         51         35         36         53         52         36         37         54         53         37         38         55         54         38         39         56         55         39         40         57         56         40         41         58         57         41         42         59         58         42         43         60         59         43         44         61         60         44         45         62         61         45         46         63         62         46         47         64         63         47         48         65         64         48         49         66         65         49         50         67         66         51         52         69         68         52         53         70         69         53         54         71         70         54         55         72         71         55         56         73         72         56         57         74         73         57         58         75         74         58         59         76         75         59         60         77         76         60         61         78         77         61         62         79         78         62         63         80         79         63         64         81         80         64         65         82         81         65         66         83         82         66         67         84         83         68         69         86         85         69         70         87         86         70         71         88         87         71         72         89         88         72         73         90         89         73         74         91         90         74         75         92         91         75         76         93         92         76         77         94         93         77         78         95         94         78         79         96         95         79         80         97         96         80         81         98         97         81         82         99         98         82         83        100         99         83         84        101        100         85         86        103        102         86         87        104        103         87         88        105        104         88         89        106        105         89         90        107        106         90         91        108        107         91         92        109        108         92         93        110        109         93         94        111        110         94         95        112        111         95         96        113        112         96         97        114        113         97         98        115        114         98         99        116        115         99        100        117        116        100        101        118        117        102        103        120        119        103        104        121        120        104        105        122        121        105        106        123        122        106        107        124        123        107        108        125        124        108        109        126        125        109        110        127        126        110        111        128        127        111        112        129        128        112        113        130        129        113        114        131        130        114        115        132        131        115        116        133        132        116        117        134        133        117        118        135        134        119        120        137        136        120        121        138        137        121        122        139        138        122        123        140        139        123        124        141        140        124        125        142        141        125        126        143        142        126        127        144        143        127        128        145        144        128        129        146        145        129        130        147        146        130        131        148        147        131        132        149        148        132        133        150        149        133        134        151        150        134        135        152        151        136        137        154        153        137        138        155        154        138        139        156        155        139        140        157        156        140        141        158        157        141        142        159        158        142        143        160        159        143        144        161        160        144        145        162        161        145        146        163        162        146        147        164        163        147        148        165        164        148        149        166        165        149        150        167        166        150        151        168        167        151        152        169        168        153        154        171        170        154        155        172        171        155        156        173        172        156        157        174        173        157        158        175        174        158        159        176        175        159        160        177        176        160        161        178        177        161        162        179        178        162        163        180        179        163        164        181        180        164        165        182        181        165        166        183        182        166        167        184        183        167        168        185        184        168        169        186        185        170        171        188        187        171        172        189        188        172        173        190        189        173        174        191        190        174        175        192        191        175        176        193        192        176        177        194        193        177        178        195        194        178        179        196        195        179        180        197        196        180        181        198        197        181        182        199        198        182        183        200        199        183        184        201        200        184        185        202        201        185        186        203        202        187        188        205        204        188        189        206        205        189        190        207        206        190        191        208        207        191        192        209        208        192        193        210        209        193        194        211        210        194        195        212        211        195        196        213        212        196        197        214        213        197        198        215        214        198        199        216        215        199        200        217        216        200        201        218        217        201        202        219        218        202        203        220        219        204        205        222        221        205        206        223        222        206        207        224        223        207        208        225        224        208        209        226        225        209        210        227        226        210        211        228        227        211        212        229        228        212        213        230        229        213        214        231        230        214        215        232        231        215        216        233        232        216        217        234        233        217        218        235        234        218        219        236        235        219        220        237        236        221        222        239        238        222        223        240        239        223        224        241        240        224        225        242        241        225        226        243        242        226        227        244        243        227        228        245        244        228        229        246        245        229        230        247        246        230        231        248        247        231        232        249        248        232        233        250        249        233        234        251        250        234        235        252        251        235        236        253        252        236        237        254        253        238        239        256        255        239        240        257        256        240        241        258        257        241        242        259        258        242        243        260        259        243        244        261        260        244        245        262        261        245        246        263        262        246        247        264        263        247        248        265        264        248        249        266        265        249        250        267        266        250        251        268        267        251        252        269        268        252        253        270        269        253        254        271        270        255        256        273        272        256        257        274        273        257        258        275        274        258        259        276        275        259        260        277        276        260        261        278        277        261        262        279        278        262        263        280        279        263        264        281        280        264        265        282        281        265        266        283        282        266        267        284        283        267        268        285        284        268        269        286        285        269        270        287        286        270        271        288        287        306        307          1          0        307        308          2          1        308        309          3          2        309        310          4          3        310        311          5          4        311        312          6          5        312        313          7          6        313        314          8          7        314        315          9          8        315        316         10          9        316        317         11         10        317        318         12         11        318        319         13         12        319        320         14         13        320        321         15         14        321        322         16         15        323        324        307        306        324        325        308        307        325        326        309        308        326        327        310        309        327        328        311        310        328        329        312        311        329        330        313        312        330        331        314        313        331        332        315        314        332        333        316        315        333        334        317        316        334        335        318        317        335        336        319        318        336        337        320        319        337        338        321        320        338        339        322        321        340        341        324        323        341        342        325        324        342        343        326        325        343        344        327        326        344        345        328        327        345        346        329        328        346        347        330        329        347        348        331        330        348        349        332        331        349        350        333        332        350        351        334        333        351        352        335        334        352        353        336        335        353        354        337        336        354        355        338        337        355        356        339        338        357        358        341        340        358        359        342        341        359        360        343        342        360        361        344        343        361        362        345        344        362        363        346        345        363        364        347        346        364        365        348        347        365        366        349        348        366        367        350        349        367        368        351        350        368        369        352        351        369        370        353        352        370        371        354        353        371        372        355        354        372        373        356        355        374        375        358        357        375        376        359        358        376        377        360        359        377        378        361        360        378        379        362        361        379        380        363        362        380        381        364        363        381        382        365        364        382        383        366        365        383        384        367        366        384        385        368        367        385        386        369        368        386        387        370        369        387        388        371        370        388        389        372        371        389        390        373        372        391        392        375        374        392        393        376        375        393        394        377        376        394        395        378        377        395        396        379        378        396        397        380        379        397        398        381        380        398        399        382        381        399        400        383        382        400        401        384        383        401        402        385        384        402        403        386        385        403        404        387        386        404        405        388        387        405        406        389        388        406        407        390        389        408        409        392        391        409        410        393        392        410        411        394        393        411        412        395        394        412        413        396        395        413        414        397        396        414        415        398        397        415        416        399        398        416        417        400        399        417        418        401        400        418        419        402        401        419        420        403        402        420        421        404        403        421        422        405        404        422        423        406        405        423        424        407        406        425        426        409        408        426        427        410        409        427        428        411        410        428        429        412        411        429        430        413        412        430        431        414        413        431        432        415        414        432        433        416        415        433        434        417        416        434        435        418        417        435        436        419        418        436        437        420        419        437        438        421        420        438        439        422        421        439        440        423        422        440        441        424        423        442        443        426        425        443        444        427        426        444        445        428        427        445        446        429        428        446        447        430        429        447        448        431        430        448        449        432        431        449        450        433        432        450        451        434        433        451        452        435        434        452        453        436        435        453        454        437        436        454        455        438        437        455        456        439        438        456        457        440        439        457        458        441        440        459        460        443        442        460        461        444        443        461        462        445        444        462        463        446        445        463        464        447        446        464        465        448        447        465        466        449        448        466        467        450        449        467        468        451        450        468        469        452        451        469        470        453        452        470        471        454        453        471        472        455        454        472        473        456        455        473        474        457        456        474        475        458        457        476        477        460        459        477        478        461        460        478        479        462        461        479        480        463        462        480        481        464        463        481        482        465        464        482        483        466        465        483        484        467        466        484        485        468        467        485        486        469        468        486        487        470        469        487        488        471        470        488        489        472        471        489        490        473        472        490        491        474        473        491        492        475        474        493        494        477        476        494        495        478        477        495        496        479        478        496        497        480        479        497        498        481        480        498        499        482        481        499        500        483        482        500        501        484        483        501        502        485        484        502        503        486        485        503        504        487        486        504        505        488        487        505        506        489        488        506        507        490        489        507        508        491        490        508        509        492        491        510        511        494        493        511        512        495        494        512        513        496        495        513        514        497        496        514        515        498        497        515        516        499        498        516        517        500        499        517        518        501        500        518        519        502        501        519        520        503        502        520        521        504        503        521        522        505        504        522        523        506        505        523        524        507        506        524        525        508        507        525        526        509        508        527        528        511        510        528        529        512        511        529        530        513        512        530        531        514        513        531        532        515        514        532        533        516        515        533        534        517        516        534        535        518        517        535        536        519        518        536        537        520        519        537        538        521        520        538        539        522        521        539        540        523        522        540        541        524        523        541        542        525        524        542        543        526        525        544        545        528        527        545        546        529        528        546        547        530        529        547        548        531        530        548        549        532        531        549        550        533        532        550        551        534        533        551        552        535        534        552        553        536        535        553        554        537        536        554        555        538        537        555        556        539        538        556        557        540        539        557        558        541        540        558        559        542        541        559        560        543        542        561        562        545        544        562        563        546        545        563        564        547        546        564        565        548        547        565        566        549        548        566        567        550        549        567        568        551        550        568        569        552        551        569        570        553        552        570        571        554        553        571        572        555        554        572        573        556        555        573        574        557        556        574        575        558        557        575        576        559        558        576        577        560        559        578        579        596        595        579        580        597        596        580        581        598        597        581        582        599        598        582        583        600        599        583        584        601        600        584        585        602        601        585        586        603        602        586        587        604        603        587        588        605        604        588        589        606        605        589        590        607        606        590        591        608        607        591        592        609        608        592        593        610        609        593        594        611        610        595        596        613        612        596        597        614        613        597        598        615        614        598        599        616        615        599        600        617        616        600        601        618        617        601        602        619        618        602        603        620        619        603        604        621        620        604        605        622        621        605        606        623        622        606        607        624        623        607        608        625        624        608        609        626        625        609        610        627        626        610        611        628        627        612        613        630        629        613        614        631        630        614        615        632        631        615        616        633        632        616        617        634        633        617        618        635        634        618        619        636        635        619        620        637        636        620        621        638        637        621        622        639        638        622        623        640        639        623        624        641        640        624        625        642        641        625        626        643        642        626        627        644        643        627        628        645        644        629        630        647        646        630        631        648        647        631        632        649        648        632        633        650        649        633        634        651        650        634        635        652        651        635        636        653        652        636        637        654        653        637        638        655        654        638        639        656        655        639        640        657        656        640        641        658        657        641        642        659        658        642        643        660        659        643        644        661        660        644        645        662        661        646        647        664        663        647        648        665        664        648        649        666        665        649        650        667        666        650        651        668        667        651        652        669        668        652        653        670        669        653        654        671        670        654        655        672        671        655        656        673        672        656        657        674        673        657        658        675        674        658        659        676        675        659        660        677        676        660        661        678        677        661        662        679        678        663        664        681        680        664        665        682        681        665        666        683        682        666        667        684        683        667        668        685        684        668        669        686        685        669        670        687        686        670        671        688        687        671        672        689        688        672        673        690        689        673        674        691        690        674        675        692        691        675        676        693        692        676        677        694        693        677        678        695        694        678        679        696        695        680        681        698        697        681        682        699        698        682        683        700        699        683        684        701        700        684        685        702        701        685        686        703        702        686        687        704        703        687        688        705        704        688        689        706        705        689        690        707        706        690        691        708        707        691        692        709        708        692        693        710        709        693        694        711        710        694        695        712        711        695        696        713        712        697        698        715        714        698        699        716        715        699        700        717        716        700        701        718        717        701        702        719        718        702        703        720        719        703        704        721        720        704        705        722        721        705        706        723        722        706        707        724        723        707        708        725        724        708        709        726        725        709        710        727        726        710        711        728        727        711        712        729        728        712        713        730        729        714        715        732        731        715        716        733        732        716        717        734        733        717        718        735        734        718        719        736        735        719        720        737        736        720        721        738        737        721        722        739        738        722        723        740        739        723        724        741        740        724        725        742        741        725        726        743        742        726        727        744        743        727        728        745        744        728        729        746        745        729        730        747        746        731        732        749        748        732        733        750        749        733        734        751        750        734        735        752        751        735        736        753        752        736        737        754        753        737        738        755        754        738        739        756        755        739        740        757        756        740        741        758        757        741        742        759        758        742        743        760        759        743        744        761        760        744        745        762        761        745        746        763        762        746        747        764        763        748        749        766        765        749        750        767        766        750        751        768        767        751        752        769        768        752        753        770        769        753        754        771        770        754        755        772        771        755        756        773        772        756        757        774        773        757        758        775        774        758        759        776        775        759        760        777        776        760        761        778        777        761        762        779        778        762        763        780        779        763        764        781        780        765        766        783        782        766        767        784        783        767        768        785        784        768        769        786        785        769        770        787        786        770        771        788        787        771        772        789        788        772        773        790        789        773        774        791        790        774        775        792        791        775        776        793        792        776        777        794        793        777        778        795        794        778        779        796        795        779        780        797        796        780        781        798        797        782        783        800        799        783        784        801        800        784        785        802        801        785        786        803        802        786        787        804        803        787        788        805        804        788        789        806        805        789        790        807        806        790        791        808        807        791        792        809        808        792        793        810        809        793        794        811        810        794        795        812        811        795        796        813        812        796        797        814        813        797        798        815        814        799        800        817        816        800        801        818        817        801        802        819        818        802        803        820        819        803        804        821        820        804        805        822        821        805        806        823        822        806        807        824        823        807        808        825        824        808        809        826        825        809        810        827        826        810        811        828        827        811        812        829        828        812        813        830        829        813        814        831        830        814        815        832        831        816        817        834        833        817        818        835        834        818        819        836        835        819        820        837        836        820        821        838        837        821        822        839        838        822        823        840        839        823        824        841        840        824        825        842        841        825        826        843        842        826        827        844        843        827        828        845        844        828        829        846        845        829        830        847        846        830        831        848        847        831        832        849        848        833        834        562        561        834        835        563        562        835        836        564        563        836        837        565        564        837        838        566        565        838        839        567        566        839        840        568        567        840        841        569        568        841        842        570        569        842        843        571        570        843        844        572        571        844        845        573        572        845        846        574        573        846        847        575        574        847        848        576        575        848        849        577        576        884        885        579        578        885        886        580        579        886        887        581        580        887        888        582        581        888        889        583        582        889        890        584        583        890        891        585        584        891        892        586        585        892        893        587        586        893        894        588        587        894        895        589        588        895        896        590        589        896        897        591        590        897        898        592        591        898        899        593        592        899        900        594        593        901        902        885        884        902        903        886        885        903        904        887        886        904        905        888        887        905        906        889        888        906        907        890        889        907        908        891        890        908        909        892        891        909        910        893        892        910        911        894        893        911        912        895        894        912        913        896        895        913        914        897        896        914        915        898        897        915        916        899        898        916        917        900        899        918        919        902        901        919        920        903        902        920        921        904        903        921        922        905        904        922        923        906        905        923        924        907        906        924        925        908        907        925        926        909        908        926        927        910        909        927        928        911        910        928        929        912        911        929        930        913        912        930        931        914        913        931        932        915        914        932        933        916        915        933        934        917        916        935        936        919        918        936        937        920        919        937        938        921        920        938        939        922        921        939        940        923        922        940        941        924        923        941        942        925        924        942        943        926        925        943        944        927        926        944        945        928        927        945        946        929        928        946        947        930        929        947        948        931        930        948        949        932        931        949        950        933        932        950        951        934        933        952        953        936        935        953        954        937        936        954        955        938        937        955        956        939        938        956        957        940        939        957        958        941        940        958        959        942        941        959        960        943        942        960        961        944        943        961        962        945        944        962        963        946        945        963        964        947        946        964        965        948        947        965        966        949        948        966        967        950        949        967        968        951        950        969        970        953        952        970        971        954        953        971        972        955        954        972        973        956        955        973        974        957        956        974        975        958        957        975        976        959        958        976        977        960        959        977        978        961        960        978        979        962        961        979        980        963        962        980        981        964        963        981        982        965        964        982        983        966        965        983        984        967        966        984        985        968        967        986        987        970        969        987        988        971        970        988        989        972        971        989        990        973        972        990        991        974        973        991        992        975        974        992        993        976        975        993        994        977        976        994        995        978        977        995        996        979        978        996        997        980        979        997        998        981        980        998        999        982        981        999       1000        983        982       1000       1001        984        983       1001       1002        985        984       1003       1004        987        986       1004       1005        988        987       1005       1006        989        988       1006       1007        990        989       1007       1008        991        990       1008       1009        992        991       1009       1010        993        992       1010       1011        994        993       1011       1012        995        994       1012       1013        996        995       1013       1014        997        996       1014       1015        998        997       1015       1016        999        998       1016       1017       1000        999       1017       1018       1001       1000       1018       1019       1002       1001       1020       1021       1004       1003       1021       1022       1005       1004       1022       1023       1006       1005       1023       1024       1007       1006       1024       1025       1008       1007       1025       1026       1009       1008       1026       1027       1010       1009       1027       1028       1011       1010       1028       1029       1012       1011       1029       1030       1013       1012       1030       1031       1014       1013       1031       1032       1015       1014       1032       1033       1016       1015       1033       1034       1017       1016       1034       1035       1018       1017       1035       1036       1019       1018       1037       1038       1021       1020       1038       1039       1022       1021       1039       1040       1023       1022       1040       1041       1024       1023       1041       1042       1025       1024       1042       1043       1026       1025       1043       1044       1027       1026       1044       1045       1028       1027       1045       1046       1029       1028       1046       1047       1030       1029       1047       1048       1031       1030       1048       1049       1032       1031       1049       1050       1033       1032       1050       1051       1034       1033       1051       1052       1035       1034       1052       1053       1036       1035       1054       1055       1038       1037       1055       1056       1039       1038       1056       1057       1040       1039       1057       1058       1041       1040       1058       1059       1042       1041       1059       1060       1043       1042       1060       1061       1044       1043       1061       1062       1045       1044       1062       1063       1046       1045       1063       1064       1047       1046       1064       1065       1048       1047       1065       1066       1049       1048       1066       1067       1050       1049       1067       1068       1051       1050       1068       1069       1052       1051       1069       1070       1053       1052       1071       1072       1055       1054       1072       1073       1056       1055       1073       1074       1057       1056       1074       1075       1058       1057       1075       1076       1059       1058       1076       1077       1060       1059       1077       1078       1061       1060       1078       1079       1062       1061       1079       1080       1063       1062       1080       1081       1064       1063       1081       1082       1065       1064       1082       1083       1066       1065       1083       1084       1067       1066       1084       1085       1068       1067       1085       1086       1069       1068       1086       1087       1070       1069       1088       1089       1072       1071       1089       1090       1073       1072       1090       1091       1074       1073       1091       1092       1075       1074       1092       1093       1076       1075       1093       1094       1077       1076       1094       1095       1078       1077       1095       1096       1079       1078       1096       1097       1080       1079       1097       1098       1081       1080       1098       1099       1082       1081       1099       1100       1083       1082       1100       1101       1084       1083       1101       1102       1085       1084       1102       1103       1086       1085       1103       1104       1087       1086       1105       1106       1089       1088       1106       1107       1090       1089       1107       1108       1091       1090       1108       1109       1092       1091       1109       1110       1093       1092       1110       1111       1094       1093       1111       1112       1095       1094       1112       1113       1096       1095       1113       1114       1097       1096       1114       1115       1098       1097       1115       1116       1099       1098       1116       1117       1100       1099       1117       1118       1101       1100       1118       1119       1102       1101       1119       1120       1103       1102       1120       1121       1104       1103       1122       1123       1106       1105       1123       1124       1107       1106       1124       1125       1108       1107       1125       1126       1109       1108       1126       1127       1110       1109       1127       1128       1111       1110       1128       1129       1112       1111       1129       1130       1113       1112       1130       1131       1114       1113       1131       1132       1115       1114       1132       1133       1116       1115       1133       1134       1117       1116       1134       1135       1118       1117       1135       1136       1119       1118       1136       1137       1120       1119       1137       1138       1121       1120        272        273       1123       1122        273        274       1124       1123        274        275       1125       1124        275        276       1126       1125        276        277       1127       1126        277        278       1128       1127        278        279       1129       1128        279        280       1130       1129        280        281       1131       1130        281        282       1132       1131        282        283       1133       1132        283        284       1134       1133        284        285       1135       1134        285        286       1136       1135        286        287       1137       1136        287        288       1138       1137 </DataArray>
<DataArray type="Int32"                                    Name="offsets"                                                      NumberOfComponents=" 1" format="ascii">
         4          8         12         16         20         24         28         32         36         40         44         48         52         56         60         64         68         72         76         80         84         88         92         96        100        104        108        112        116        120        124        128        132        136        140        144        148        152        156        160        164        168        172        176        180        184        188        192        196        200        204        208        212        216        220        224        228        232        236        240        244        248        252        256        260        264        268        272        276        280        284        288        292        296        300        304        308        312        316        320        324        328        332        336        340        344        348        352        356        360        364        368        372        376        380        384        388        392        396        400        404        408        412        416        420        424        428        432        436        440        444        448        452        456        460        464        468        472        476        480        484        488        492        496        500        504        508        512        516        520        524        528        532        536        540        544        548        552        556        560        564        568        572        576        580        584        588        592        596        600        604        608        612        616        620        624        628        632        636        640        644        648        652        656        660        664        668        672        676        680        684        688        692        696        700        704        708        712        716        720        724        728        732        736        740        744        748        752        756        760        764        768        772        776        780        784        788        792        796        800        804        808        812        816        820        824        828        832        836        840        844        848        852        856        860        864        868        872        876        880        884        888        892        896        900        904        908        912        916        920        924        928        932        936        940        944        948        952        956        960        964        968        972        976        980        984        988        992        996       1000       1004       1008       1012       1016       1020       1024       1028       1032       1036       1040       1044       1048       1052       1056       1060       1064       1068       1072       1076       1080       1084       1088       1092       1096       1100       1104       1108       1112       1116       1120       1124       1128       1132       1136       1140       1144       1148       1152       1156       1160       1164       1168       1172       1176       1180       1184       1188       1192       1196       1200       1204       1208       1212       1216       1220       1224       1228       1232       1236       1240       1244       1248       1252       1256       1260       1264       1268       1272       1276       1280       1284       1288       1292       1296       1300       1304       1308       1312       1316       1320       1324       1328       1332       1336       1340       1344       1348       1352       1356       1360       1364       1368       1372       1376       1380       1384       1388       1392       1396       1400       1404       1408       1412       1416       1420       1424       1428       1432       1436       1440       1444       1448       1452       1456       1460       1464       1468       1472       1476       1480       1484       1488       1492       1496       1500       1504       1508       1512       1516       1520       1524       1528       1532       1536       1540       1544       1548       1552       1556       1560       1564       1568       1572       1576       1580       1584       1588       1592       1596       1600       1604       1608       1612       1616       1620       1624       1628       1632       1636       1640       1644       1648       1652       1656       1660       1664       1668       1672       1676       1680       1684       1688       1692       1696       1700       1704       1708       1712       1716       1720       1724       1728       1732       1736       1740       1744       1748       1752       1756       1760       1764       1768       1772       1776       1780       1784       1788       1792       1796       1800       1804       1808       1812       1816       1820       1824       1828       1832       1836       1840       1844       1848       1852       1856       1860       1864       1868       1872       1876       1880       1884       1888       1892       1896       1900       1904       1908       1912       1916       1920       1924       1928       1932       1936       1940       1944       1948       1952       1956       1960       1964       1968       1972       1976       1980       1984       1988       1992       1996       2000       2004       2008       2012       2016       2020       2024       2028       2032       2036       2040       2044       2048       2052       2056       2060       2064       2068       2072       2076       2080       2084       2088       2092       2096       2100       2104       2108       2112       2116       2120       2124       2128       2132       2136       2140       2144       2148       2152       2156       2160       2164       2168       2172       2176       2180       2184       2188       2192       2196       2200       2204       2208       2212       2216       2220       2224       2228       2232       2236       2240       2244       2248       2252       2256       2260       2264       2268       2272       2276       2280       2284       2288       2292       2296       2300       2304       2308       2312       2316       2320       2324       2328       2332       2336       2340       2344       2348       2352       2356       2360       2364       2368       2372       2376       2380       2384       2388       2392       2396       2400       2404       2408       2412       2416       2420       2424       2428       2432       2436       2440       2444       2448       2452       2456       2460       2464       2468       2472       2476       2480       2484       2488       2492       2496       2500       2504       2508       2512       2516       2520       2524       2528       2532       2536       2540       2544       2548       2552       2556       2560       2564       2568       2572       2576       2580       2584       2588       2592       2596       2600       2604       2608       2612       2616       2620       2624       2628       2632       2636       2640       2644       2648       2652       2656       2660       2664       2668       2672       2676       2680       2684       2688       2692       2696       2700       2704       2708       2712       2716       2720       2724       2728       2732       2736       2740       2744       2748       2752       2756       2760       2764       2768       2772       2776       2780       2784       2788       2792       2796       2800       2804       2808       2812       2816       2820       2824       2828       2832       2836       2840       2844       2848       2852       2856       2860       2864       2868       2872       2876       2880       2884       2888       2892       2896       2900       2904       2908       2912       2916       2920       2924       2928       2932       2936       2940       2944       2948       2952       2956       2960       2964       2968       2972       2976       2980       2984       2988       2992       2996       3000       3004       3008       3012       3016       3020       3024       3028       3032       3036       3040       3044       3048       3052       3056       3060       3064       3068       3072       3076       3080       3084       3088       3092       3096       3100       3104       3108       3112       3116       3120       3124       3128       3132       3136       3140       3144       3148       3152       3156       3160       3164       3168       3172       3176       3180       3184       3188       3192       3196       3200       3204       3208       3212       3216       3220       3224       3228       3232       3236       3240       3244       3248       3252       3256       3260       3264       3268       3272       3276       3280       3284       3288       3292       3296       3300       3304       3308       3312       3316       3320       3324       3328       3332       3336       3340       3344       3348       3352       3356       3360       3364       3368       3372       3376       3380       3384       3388       3392       3396       3400       3404       3408       3412       3416       3420       3424       3428       3432       3436       3440       3444       3448       3452       3456       3460       3464       3468       3472       3476       3480       3484       3488       3492       3496       3500       3504       3508       3512       3516       3520       3524       3528       3532       3536       3540       3544       3548       3552       3556       3560       3564       3568       3572       3576       3580       3584       3588       3592       3596       3600       3604       3608       3612       3616       3620       3624       3628       3632       3636       3640       3644       3648       3652       3656       3660       3664       3668       3672       3676       3680       3684       3688       3692       3696       3700       3704       3708       3712       3716       3720       3724       3728       3732       3736       3740       3744       3748       3752       3756       3760       3764       3768       3772       3776       3780       3784       3788       3792       3796       3800       3804       3808       3812       3816       3820       3824       3828       3832       3836       3840       3844       3848       3852       3856       3860       3864       3868       3872       3876       3880       3884       3888       3892       3896       3900       3904       3908       3912       3916       3920       3924       3928       3932       3936       3940       3944       3948       3952       3956       3960       3964       3968       3972       3976       3980       3984       3988       3992       3996       4000       4004       4008       4012       4016       4020       4024       4028       4032       4036       4040       4044       4048       4052       4056       4060       4064       4068       4072       4076       4080       4084       4088       4092       4096 </DataArray>
<DataArray type="UInt8"                                    Name="types"                                                      NumberOfComponents=" 1" format="ascii">
         9          9          9          9          9          9          9          9          9          9          9          9          9          9          9          9          9          9          9          9          9          9          9          9          9          9          9          9          9          9          9          9          9          9          9          9          9          9          9          9          9          9          9          9          9          9          9          9          9          9          9          9          9          9          9          9          9          9          9          9          9          9          9          9          9          9          9          9          9          9          9          9          9          9          9          9          9          9          9          9          9          9          9          9          9          9          9          9          9          9          9          9          9          9          9          9          9          9          9          9          9          9          9          9          9          9          9          9          9          9          9          9          9          9          9          9          9          9          9          9          9          9          9          9          9          9          9          9          9          9          9          9          9          9          9          9          9          9          9          9          9          9          9          9          9          9          9          9          9          9          9          9          9          9          9          9          9          9          9          9          9          9          9          9          9          9          9          9          9          9          9          9          9          9          9          9          9          9          9          9          9          9          9          9          9          9          9          9          9          9          9          9          9          9          9          9          9          9          9          9          9          9          9          9          9          9          9          9          9          9          9          9          9          9          9          9          9          9          9          9          9          9          9          9          9          9          9          9          9          9          9          9          9          9          9          9          9          9          9          9          9          9          9          9          9          9          9          9          9          9          9          9          9          9          9          9          9          9          9          9          9          9          9          9          9          9          9          9          9          9          9          9          9          9          9          9          9          9          9          9          9          9          9          9          9          9          9          9          9          9          9          9          9          9          9          9          9          9          9          9          9          9          9          9          9          9          9          9          9          9          9          9          9          9          9          9          9          9          9          9          9          9          9          9          9          9          9          9          9          9          9          9          9          9          9          9          9          9          9          9          9          9          9          9          9          9          9          9          9          9          9          9          9          9          9          9          9          9          9          9          9          9          9          9          9          9          9          9          9          9          9          9          9          9          9          9          9          9          9          9          9          9          9          9          9          9          9          9          9          9          9          9          9          9          9          9          9          9          9          9          9          9          9          9          9          9          9          9          9          9          9          9          9          9          9          9          9          9          9          9          9          9          9          9          9          9          9          9          9          9          9          9          9          9          9          9          9          9          9          9          9          9          9          9          9          9          9          9          9          9          9          9          9          9          9          9          9          9          9          9          9          9          9          9          9          9          9          9          9          9          9          9          9          9          9          9          9          9          9          9          9          9          9          9          9          9          9          9          9          9          9          9          9          9          9          9          9          9          9          9          9          9          9          9          9          9          9          9          9          9          9          9          9          9          9          9          9          9          9          9          9          9          9          9          9          9          9          9          9          9          9          9          9          9          9          9          9          9          9          9          9          9          9          9          9          9          9          9          9          9          9          9          9          9          9          9          9          9          9          9          9          9          9          9          9          9          9          9          9          9          9          9          9          9          9          9          9          9          9          9          9          9          9          9          9          9          9          9          9          9          9          9          9          9          9          9          9          9          9          9          9          9          9          9          9          9          9          9          9          9          9          9          9          9          9          9          9          9          9          9          9          9          9          9          9          9          9          9          9          9          9          9          9          9          9          9          9          9          9          9          9          9          9          9          9          9          9          9          9          9          9          9          9          9          9          9          9          9          9          9          9          9          9          9          9          9          9          9          9          9          9          9          9          9          9          9          9          9          9          9          9          9          9          9          9          9          9          9          9          9          9          9          9          9          9          9          9          9          9          9          9          9          9          9          9          9          9          9          9          9          9          9          9          9          9          9          9          9          9          9          9          9          9          9          9          9          9          9          9          9          9          9          9          9          9          9          9          9          9          9          9          9          9          9          9          9          9          9          9          9          9          9          9          9          9          9          9          9          9          9          9          9          9          9          9          9          9          9          9          9          9          9          9          9          9          9          9          9          9          9          9          9          9          9          9          9          9          9          9          9          9          9          9          9          9          9          9          9          9          9          9          9          9          9          9          9          9          9          9          9          9          9          9          9          9          9          9          9          9          9          9          9          9          9          9          9          9          9          9          9          9          9          9          9          9          9          9          9          9          9          9          9          9          9          9          9          9          9          9          9          9          9          9          9          9          9          9          9          9          9          9          9          9          9          9          9          9          9          9          9          9          9          9          9          9          9          9          9          9          9          9          9          9          9          9          9          9          9          9          9          9          9          9          9          9          9          9          9          9          9          9          9          9          9          9          9          9          9          9          9          9          9          9          9          9          9          9          9          9          9          9          9          9          9          9          9          9          9          9          9          9          9          9          9          9          9          9          9          9          9          9          9          9          9          9          9          9          9          9          9          9          9          9          9          9          9          9          9          9          9          9          9          9          9          9          9          9          9          9          9          9          9          9          9          9          9          9          9          9          9          9          9          9          9          9          9          9          9          9          9          9          9          9          9          9          9          9          9          9          9          9          9          9          9          9          9          9          9          9          9          9          9          9          9          9          9          9          9          9          9          9          9          9          9 </DataArray>
</Cells>
<CellData>
<DataArray type="Int32"                                    Name="material"                                                      NumberOfComponents=" 1" format="ascii">
         1          1          1          1          1          1          1          1          1          1          1          1          1          1          1          1          1          1          1          1          1          1          1          1          1          1          1          1          1          1          1          1          1          1          1          1          1          1          1          1          1          1          1          1          1          1          1          1          1          1          1          1          1          1          1          1          1          1          1          1          1          1          1          1          1          1          1          1          1          1          1          1          1          1          1          1          1          1          1          1          1          1          1          1          1          1          1          1          1          1          1          1          1          1          1          1          1          1          1          1          1          1          1          1          1          1          1          1          1          1          1          1          1          1          1          1          1          1          1          1          1          1          1          1          1          1          1          1          1          1          1          1          1          1          1          1          1          1          1          1          1          1          1          1          1          1          1          1          1          1          1          1          1          1          1          1          1          1          1          1          1          1          1          1          1          1          1          1          1          1          1          1          1          1          1          1          1          1          1          1          1          1          1          1          1          1          1          1          1          1          1          1          1          1          1          1          1          1          1          1          1          1          1          1          1          1          1          1          1          1          1          1          1          1          1          1          1          1          1          1          1          1          1          1          1          1          1          1          1          1          1          1          1          1          1          1          1          1          1          1          1          1          1          1          1          1          1          1          1          1          1          1          1          1          1          1          1          1          1          1          1          1          1          1          1          1          1          1          1          1          1          1          1          1          1          1          1          1          1          1          1          1          1          1          1          1          1          1          1          1          1          1          1          1          1          1          1          1          1          1          1          1          1          1          1          1          1          1          1          1          1          1          1          1          1          1          1          1          1          1          1          1          1          1          1          1          1          1          1          1          1          1          1          1          1          1          1          1          1          1          1          1          1          1          1          1          1          1          1          1          1          1          1          1          1          1          1          1          1          1          1          1          1          1          1          1          1          1          1          1          1          1          1          1          1          1          1          1          1          1          1          1          1          1          1          1          1          1          1          1          1          1          1          1          1          1          1          1          1          1          1          1          1          1          1          1          1          1          1          1          1          1          1          1          1          1          1          1          1          1          1          1          1          1          1          1          1          1          1          1          1          1          1          1          1          1          1          1          1          1          1          1          1          1          1          1          1          1          1          1          1          1          1          1          1          1          1          1          1          1          1          1          1          1          1          1          1          1          1          1          1          1          1          1          1          1          1          1          1          1          1          1          1          1          1          1          1          1          1          1          1          1          1          1          1          1          1          1          1          1          1          1          1          1          1          1          1          1          1          1          1          1          1          1          1          1          1          1          1          1          1          1          1          1          1          1          1          1          1          1          1          1          1          1          1          1          1          1          1          1          1          1          1          1          1          1          1          1          1          1          1          1          1          1          1          1          1          1          1          1          1          1          1          1          1          1          1          1          1          1          1          1          1          1          1          1          1          1          1          1          1          1          1          1          1          1          1          1          1          1          1          1          1          1          1          1          1          1          1          1          1          1          1          1          1          1          1          1          1          1          1          1          1          1          1          1          1          1          1          1          1          1          1          1          1          1          1          1          1          1          1          1          1          1          1          1          1          1          1          1          1          1          1          1          1          1          1          1          1          1          1          1          1          1          1          1          1          1          1          1          1          1          1          1          1          1          1          1          1          1          1          1          1          1          1          1          1          1          1          1          1          1          1          1          1          1          1          1          1          1          1          1          1          1          1          1          1          1          1          1          1          1          1          1          1          1          1          1          1          1          1          1          1          1          1          1          1          1          1          1          1          1          1          1          1          1          1          1          1          1          1          1          1          1          1          1          1          1          1          1          1          1          1          1          1          1          1          1          1          1          1          1          1          1          1          1          1          1          1          1          1          1          1          1          1          1          1          1          1          1          1          1          1          1          1          1          1          1          1          1          1          1          1          1          1          1          1          1          1          1          1          1          1          1          1          1          1          1          1          1          1          1          1          1          1          1          1          1          1          1          1          1          1          1          1          1          1          1          1          1          1          1          1          1          1          1          1          1          1          1          1          1          1          1          1          1          1          1          1          1          1          1          1          1          1          1          1          1          1          1          1          1          1          1          1          1          1          1          1          1          1          1          1          1          1          1          1          1          1          1          1          1          1          1          1          1          1          1          1          1          1          1          1          1          1          1          1          1          1          1          1          1          1          1          1          1          1          1          1          1          1          1          1          1          1          1          1          1          1          1          1          1          1          1          1          1          1          1          1          1          1          1          1          1          1          1          1          1          1          1          1          1          1          1          1          1          1          1          1          1          1          1          1          1          1          1          1          1          1          1          1          1          1          1          1          1          1          1          1          1          1          1          1          1          1          1          1          1          1          1          1          1          1          1          1          1          1          1          1          1          1          1          1          1          1          1          1          1          1          1          1          1          1          1          1          1          1          1          1          1          1          1          1          1          1          1          1          1          1          1          1          1          1          1          1          1          1          1          1          1          1          1          1          1 </DataArray>
</CellData>
<PointData>
<DataArray type="Float64"                                    Name="u"                                                      NumberOfComponents=" 3" format="ascii">
             -0.000706166               0.000000000               0.999999984              -0.000756453               0.000000000               0.999999984              -0.000778114               0.000000000               0.999999984              -0.000789932               0.000000000               0.999999984              -0.000799102               0.000000000               0.999999984              -0.000808242               0.000000000               0.999999984              -0.000818271              -0.000000000               0.999999984              -0.000829544               0.000000000               0.999999984              -0.000842001              -0.000000000               0.999999984              -0.000855488              -0.000000000               0.999999984              -0.000869610               0.000000000               0.999999984              -0.000884015               0.000000000               0.999999984              -0.000898412               0.000000000               0.999999984              -0.000912623               0.000000000               0.999999984              -0.000926485               0.000000000               0.999999984              -0.000939485               0.000000000               0.999999984              -0.000950902              -0.000000000               0.999999984              -0.000702404               0.000130101               0.999999984              -0.000748955               0.000106189               0.999999984              -0.000768218               0.000095682               0.999999984              -0.000778632               0.000092287               0.999999984              -0.000786917               0.000092392               0.999999984              -0.000795459               0.000094334               0.999999984              -0.000805025               0.000097216               0.999999984              -0.000815775               0.000100411               0.999999984              -0.000827629               0.000103537               0.999999984              -0.000840325               0.000106132               0.999999984              -0.000853522               0.000107873               0.999999984              -0.000866939               0.000108564               0.999999984              -0.000880320               0.000108041               0.999999984              -0.000893370               0.000106018               0.999999984              -0.000905687               0.000101860               0.999999984              -0.000916830               0.000094689               0.999999984              -0.000926217               0.000083341               0.999999984              -0.000690826               0.000258959               0.999999984              -0.000726473               0.000211655               0.999999984              -0.000739136               0.000191782               0.999999984              -0.000745628               0.000185766               0.999999984              -0.000751447               0.000186610               0.999999984              -0.000758393               0.000190939               0.999999984              -0.000766569               0.000196823               0.999999984              -0.000775838               0.000203156               0.999999984              -0.000786013               0.000209245               0.999999984              -0.000796753               0.000214314               0.999999984              -0.000807671               0.000217848               0.999999984              -0.000818387               0.000219361               0.999999984              -0.000828610               0.000218383               0.999999984              -0.000837846               0.000214216               0.999999984              -0.000845657               0.000205933               0.999999984              -0.000851703               0.000192603               0.999999984              -0.000855704               0.000172511               0.999999984              -0.000671754               0.000385208               0.999999984              -0.000690284               0.000315861               0.999999984              -0.000693421               0.000288533               0.999999984              -0.000694633               0.000281364               0.999999984              -0.000697439               0.000283991               0.999999984              -0.000702278               0.000291240               0.999999984              -0.000708689               0.000300352               0.999999984              -0.000716224               0.000309809               0.999999984              -0.000724220               0.000318558               0.999999984              -0.000732114               0.000325917               0.999999984              -0.000739441               0.000331015               0.999999984              -0.000745826               0.000333259               0.999999984              -0.000750780               0.000331770               0.999999984              -0.000753912               0.000325742               0.999999984              -0.000754972               0.000314539               0.999999984              -0.000753751               0.000297237               0.999999984              -0.000750502               0.000272851               0.999999984              -0.000645638               0.000507619               0.999999984              -0.000642119               0.000418578               0.999999984              -0.000634563               0.000386303               0.999999984              -0.000630634               0.000379739               0.999999984              -0.000630855               0.000385134               0.999999984              -0.000634074               0.000395657               0.999999984              -0.000639010               0.000408070               0.999999984              -0.000644628               0.000420438               0.999999984              -0.000649977               0.000431665               0.999999984              -0.000654318               0.000440803               0.999999984              -0.000657126               0.000447097               0.999999984              -0.000657903               0.000449676               0.999999984              -0.000656174               0.000447630               0.999999984              -0.000651698               0.000440301               0.999999984              -0.000644582               0.000427480               0.999999984              -0.000635189               0.000409013               0.999999984              -0.000624207               0.000384967               0.999999984              -0.000612755               0.000625169               0.999999984              -0.000584357               0.000519855               0.999999984              -0.000566985               0.000485245               0.999999984              -0.000559455               0.000480571               0.999999984              -0.000558440               0.000489198               0.999999984              -0.000560907               0.000503191               0.999999984              -0.000564646               0.000518776               0.999999984              -0.000568176               0.000533822               0.999999984              -0.000570414               0.000546980               0.999999984              -0.000570599               0.000557454               0.999999984              -0.000567993               0.000564223               0.999999984              -0.000562075               0.000566492               0.999999984              -0.000552697               0.000563621               0.999999984              -0.000540093               0.000555496               0.999999984              -0.000524829               0.000542493               0.999999984              -0.000507626               0.000525038               0.999999984              -0.000489349               0.000504267               0.999999984              -0.000573744               0.000736763               0.999999984              -0.000520154               0.000619675               0.999999984              -0.000495395               0.000584805               0.999999984              -0.000486555               0.000582727               0.999999984              -0.000485887               0.000594586               0.999999984              -0.000488261               0.000611771               0.999999984              -0.000490867               0.000630049               0.999999984              -0.000491975               0.000647284               0.999999984              -0.000490493               0.000661971               0.999999984              -0.000485642               0.000673128               0.999999984              -0.000476704               0.000679631               0.999999984              -0.000463457               0.000681057               0.999999984              -0.000446253               0.000677415               0.999999984              -0.000425712               0.000669092               0.999999984              -0.000402735               0.000656850               0.999999984              -0.000378134               0.000641638               0.999999984              -0.000352553               0.000624534               0.999999984              -0.000529633               0.000841119               0.999999984              -0.000452648               0.000717792               0.999999984              -0.000423915               0.000684098               0.999999984              -0.000416381               0.000684525               0.999999984              -0.000417110               0.000699304               0.999999984              -0.000419727               0.000719078               0.999999984              -0.000420973               0.000739528               0.999999984              -0.000419179               0.000758264               0.999999984              -0.000413234               0.000773965               0.999999984              -0.000402423               0.000785207               0.999999984              -0.000386304               0.000791024               0.999999984              -0.000365136               0.000791698               0.999999984              -0.000339672               0.000787785               0.999999984              -0.000310908               0.000780035               0.999999984              -0.000279825               0.000769447               0.999999984              -0.000247125               0.000756894               0.999999984              -0.000213497               0.000743191               0.999999984              -0.000481796               0.000936502               0.999999984              -0.000384156               0.000814110               0.999999984              -0.000356248               0.000781840               0.999999984              -0.000351598               0.000784298               0.999999984              -0.000354345               0.000801360               0.999999984              -0.000356991               0.000823291               0.999999984              -0.000356455               0.000845321               0.999999984              -0.000351117               0.000865137               0.999999984              -0.000339842               0.000881214               0.999999984              -0.000321934               0.000892149               0.999999984              -0.000297481               0.000897390               0.999999984              -0.000267309               0.000897783               0.999999984              -0.000232654               0.000894301               0.999999984              -0.000194837               0.000888043               0.999999984              -0.000154821               0.000879820               0.999999984              -0.000113574               0.000870567               0.999999984              -0.000071828               0.000860838               0.999999984              -0.000432439               0.001026481               0.999999984              -0.000327356               0.000920986               0.999999984              -0.000296270               0.000884236               0.999999984              -0.000290236               0.000880458               0.999999984              -0.000292689               0.000892534               0.999999984              -0.000296033               0.000911554               0.999999984              -0.000296875               0.000932659               0.999999984              -0.000293565               0.000953201               0.999999984              -0.000285258               0.000971779               0.999999984              -0.000271112               0.000987086               0.999999984              -0.000250607               0.000998351               0.999999984              -0.000223867               0.001005371               0.999999984              -0.000191874               0.001008897               0.999999984              -0.000155781               0.001009520               0.999999984              -0.000116467               0.001008245               0.999999984              -0.000075003               0.001005614               0.999999984              -0.000032637               0.001002352               0.999999984              -0.000378497               0.001108182               0.999999984              -0.000273481               0.001024208               0.999999984              -0.000239367               0.000989136               0.999999984              -0.000231042               0.000981673               0.999999984              -0.000232298               0.000989917               0.999999984              -0.000235566               0.001006360               0.999999984              -0.000237307               0.001026558               0.999999984              -0.000235563               0.001047668               0.999999984              -0.000229624               0.001068128               0.999999984              -0.000218617               0.001086836               0.999999984              -0.000201791               0.001102982               0.999999984              -0.000178934               0.001115889               0.999999984              -0.000150233               0.001125695               0.999999984              -0.000116519               0.001132746               0.999999984              -0.000078556               0.001137746               0.999999984              -0.000037323               0.001141333               0.999999984               0.000005978               0.001144249               0.999999984              -0.000321119               0.001179695               0.999999984              -0.000222534               0.001120593               0.999999984              -0.000187145               0.001091703               0.999999984              -0.000176345               0.001084029               0.999999984              -0.000175693               0.001090288               0.999999984              -0.000178198               0.001105137               0.999999984              -0.000180165               0.001124693               0.999999984              -0.000179512               0.001146454               0.999999984              -0.000175422               0.001168685               0.999999984              -0.000166992               0.001190409               0.999999984              -0.000153530               0.001210718               0.999999984              -0.000134563               0.001228812               0.999999984              -0.000109756               0.001244387               0.999999984              -0.000079182               0.001257561               0.999999984              -0.000043232               0.001268604               0.999999984              -0.000002470               0.001278098               0.999999984               0.000042231               0.001286754               0.999999984              -0.000260716               0.001239937               0.999999984              -0.000174452               0.001206263               0.999999984              -0.000140336               0.001186833               0.999999984              -0.000127993               0.001182006               0.999999984              -0.000125368               0.001188442               0.999999984              -0.000126577               0.001202957               0.999999984              -0.000128231               0.001222650               0.999999984              -0.000128133               0.001245485               0.999999984              -0.000125274               0.001269875               0.999999984              -0.000118917               0.001294638               0.999999984              -0.000108569               0.001318843               0.999999984              -0.000093335               0.001341829               0.999999984              -0.000072774               0.001363012               0.999999984              -0.000046265               0.001382218               0.999999984              -0.000013366               0.001399433               0.999999984               0.000025909               0.001415036               0.999999984               0.000071595               0.001429473               0.999999984              -0.000197814               0.001287896               0.999999984              -0.000128806               0.001277470               0.999999984              -0.000099121               0.001268837               0.999999984              -0.000086950               0.001268784               0.999999984              -0.000083082               0.001277270               0.999999984              -0.000083038               0.001292679               0.999999984              -0.000083970               0.001313319               0.999999984              -0.000084009               0.001337622               0.999999984              -0.000082088               0.001364291               0.999999984              -0.000077513               0.001392193               0.999999984              -0.000069827               0.001420343               0.999999984              -0.000058485               0.001448175               0.999999984              -0.000042503               0.001474966               0.999999984              -0.000020931               0.001500390               0.999999984               0.000007009               0.001524125               0.999999984               0.000042329               0.001546181               0.999999984               0.000086134               0.001566777               0.999999984              -0.000132996               0.001322753               0.999999984              -0.000084967               0.001330901               0.999999984              -0.000062924               0.001332233               0.999999984              -0.000053046               0.001337368               0.999999984              -0.000049227               0.001348621               0.999999984              -0.000048469               0.001365729               0.999999984              -0.000048768               0.001387705               0.999999984              -0.000048794               0.001413585               0.999999984              -0.000047491               0.001442384               0.999999984              -0.000044545               0.001473148               0.999999984              -0.000039575               0.001504883               0.999999984              -0.000032002               0.001537050               0.999999984              -0.000021027               0.001569206               0.999999984              -0.000005676               0.001600646               0.999999984               0.000014941               0.001630848               0.999999984               0.000042259               0.001659487               0.999999984               0.000078239               0.001686293               0.999999984              -0.000066839               0.001343922               0.999999984              -0.000042231               0.001364094               0.999999984              -0.000030454               0.001372448               0.999999984              -0.000024925               0.001381596               0.999999984              -0.000022521               0.001395136               0.999999984              -0.000021862               0.001413655               0.999999984              -0.000021906               0.001436803               0.999999984              -0.000021876               0.001463905               0.999999984              -0.000021189               0.001494232               0.999999984              -0.000019782               0.001527001               0.999999984              -0.000017379               0.001561407               0.999999984              -0.000013569               0.001596857               0.999999984              -0.000007942               0.001632929               0.999999984               0.000000049               0.001668995               0.999999984               0.000011142               0.001704348               0.999999984               0.000026182               0.001738390               0.999999984               0.000046832               0.001770357               0.999999984               0.000000000               0.001350965               0.999999984              -0.000000000               0.001375315               0.999999984              -0.000000000               0.001386231               0.999999984              -0.000000000               0.001396922               0.999999984               0.000000000               0.001411404               0.999999984               0.000000000               0.001430464               0.999999984              -0.000000000               0.001454050               0.999999984               0.000000000               0.001481604               0.999999984              -0.000000000               0.001512422               0.999999984              -0.000000000               0.001545871               0.999999984               0.000000000               0.001581312               0.999999984              -0.000000000               0.001618097               0.999999984              -0.000000000               0.001655759               0.999999984              -0.000000000               0.001693687               0.999999984              -0.000000000               0.001731131               0.999999984              -0.000000000               0.001767311               0.999999984               0.000000000               0.001801277               0.999999984              -0.000706166               0.000000000               0.999999984              -0.000756453               0.000000000               0.999999984              -0.000778114               0.000000000               0.999999984              -0.000789932               0.000000000               0.999999984              -0.000799102               0.000000000               0.999999984              -0.000808242               0.000000000               0.999999984              -0.000818271              -0.000000000               0.999999984              -0.000829544               0.000000000               0.999999984              -0.000842001              -0.000000000               0.999999984              -0.000855488              -0.000000000               0.999999984              -0.000869610               0.000000000               0.999999984              -0.000884015               0.000000000               0.999999984              -0.000898412               0.000000000               0.999999984              -0.000912623               0.000000000               0.999999984              -0.000926485               0.000000000               0.999999984              -0.000939485               0.000000000               0.999999984              -0.000950902              -0.000000000               0.999999984              -0.000702404              -0.000130101               0.999999984              -0.000748955              -0.000106189               0.999999984              -0.000768218              -0.000095682               0.999999984              -0.000778632              -0.000092287               0.999999984              -0.000786917              -0.000092392               0.999999984              -0.000795459              -0.000094334               0.999999984              -0.000805025              -0.000097216               0.999999984              -0.000815775              -0.000100411               0.999999984              -0.000827629              -0.000103537               0.999999984              -0.000840325              -0.000106132               0.999999984              -0.000853522              -0.000107873               0.999999984              -0.000866939              -0.000108564               0.999999984              -0.000880320              -0.000108041               0.999999984              -0.000893370              -0.000106018               0.999999984              -0.000905687              -0.000101860               0.999999984              -0.000916830              -0.000094689               0.999999984              -0.000926217              -0.000083341               0.999999984              -0.000690826              -0.000258959               0.999999984              -0.000726473              -0.000211655               0.999999984              -0.000739136              -0.000191782               0.999999984              -0.000745628              -0.000185766               0.999999984              -0.000751447              -0.000186610               0.999999984              -0.000758393              -0.000190939               0.999999984              -0.000766569              -0.000196823               0.999999984              -0.000775838              -0.000203156               0.999999984              -0.000786013              -0.000209245               0.999999984              -0.000796753              -0.000214314               0.999999984              -0.000807671              -0.000217848               0.999999984              -0.000818387              -0.000219361               0.999999984              -0.000828610              -0.000218383               0.999999984              -0.000837846              -0.000214216               0.999999984              -0.000845657              -0.000205933               0.999999984              -0.000851703              -0.000192603               0.999999984              -0.000855704              -0.000172511               0.999999984              -0.000671754              -0.000385208               0.999999984              -0.000690284              -0.000315861               0.999999984              -0.000693421              -0.000288533               0.999999984              -0.000694633              -0.000281364               0.999999984              -0.000697439              -0.000283991               0.999999984              -0.000702278              -0.000291240               0.999999984              -0.000708689              -0.000300352               0.999999984              -0.000716224              -0.000309809               0.999999984              -0.000724220              -0.000318558               0.999999984              -0.000732114              -0.000325917               0.999999984              -0.000739441              -0.000331015               0.999999984              -0.000745826              -0.000333259               0.999999984              -0.000750780              -0.000331770               0.999999984              -0.000753912              -0.000325742               0.999999984              -0.000754972              -0.000314539               0.999999984              -0.000753751              -0.000297237               0.999999984              -0.000750502              -0.000272851               0.999999984              -0.000645638              -0.000507619               0.999999984              -0.000642119              -0.000418578               0.999999984              -0.000634563              -0.000386303               0.999999984              -0.000630634              -0.000379739               0.999999984              -0.000630855              -0.000385134               0.999999984              -0.000634074              -0.000395657               0.999999984              -0.000639010              -0.000408070               0.999999984              -0.000644628              -0.000420438               0.999999984              -0.000649977              -0.000431665               0.999999984              -0.000654318              -0.000440803               0.999999984              -0.000657126              -0.000447097               0.999999984              -0.000657903              -0.000449676               0.999999984              -0.000656174              -0.000447630               0.999999984              -0.000651698              -0.000440301               0.999999984              -0.000644582              -0.000427480               0.999999984              -0.000635189              -0.000409013               0.999999984              -0.000624207              -0.000384967               0.999999984              -0.000612755              -0.000625169               0.999999984              -0.000584357              -0.000519855               0.999999984              -0.000566985              -0.000485245               0.999999984              -0.000559455              -0.000480571               0.999999984              -0.000558440              -0.000489198               0.999999984              -0.000560907              -0.000503191               0.999999984              -0.000564646              -0.000518776               0.999999984              -0.000568176              -0.000533822               0.999999984              -0.000570414              -0.000546980               0.999999984              -0.000570599              -0.000557454               0.999999984              -0.000567993              -0.000564223               0.999999984              -0.000562075              -0.000566492               0.999999984              -0.000552697              -0.000563621               0.999999984              -0.000540093              -0.000555496               0.999999984              -0.000524829              -0.000542493               0.999999984              -0.000507626              -0.000525038               0.999999984              -0.000489349              -0.000504267               0.999999984              -0.000573744              -0.000736763               0.999999984              -0.000520154              -0.000619675               0.999999984              -0.000495395              -0.000584805               0.999999984              -0.000486555              -0.000582727               0.999999984              -0.000485887              -0.000594586               0.999999984              -0.000488261              -0.000611771               0.999999984              -0.000490867              -0.000630049               0.999999984              -0.000491975              -0.000647284               0.999999984              -0.000490493              -0.000661971               0.999999984              -0.000485642              -0.000673128               0.999999984              -0.000476704              -0.000679631               0.999999984              -0.000463457              -0.000681057               0.999999984              -0.000446253              -0.000677415               0.999999984              -0.000425712              -0.000669092               0.999999984              -0.000402735              -0.000656850               0.999999984              -0.000378134              -0.000641638               0.999999984              -0.000352553              -0.000624534               0.999999984              -0.000529633              -0.000841119               0.999999984              -0.000452648              -0.000717792               0.999999984              -0.000423915              -0.000684098               0.999999984              -0.000416381              -0.000684525               0.999999984              -0.000417110              -0.000699304               0.999999984              -0.000419727              -0.000719078               0.999999984              -0.000420973              -0.000739528               0.999999984              -0.000419179              -0.000758264               0.999999984              -0.000413234              -0.000773965               0.999999984              -0.000402423              -0.000785207               0.999999984              -0.000386304              -0.000791024               0.999999984              -0.000365136              -0.000791698               0.999999984              -0.000339672              -0.000787785               0.999999984              -0.000310908              -0.000780035               0.999999984              -0.000279825              -0.000769447               0.999999984              -0.000247125              -0.000756894               0.999999984              -0.000213497              -0.000743191               0.999999984              -0.000481796              -0.000936502               0.999999984              -0.000384156              -0.000814110               0.999999984              -0.000356248              -0.000781840               0.999999984              -0.000351598              -0.000784298               0.999999984              -0.000354345              -0.000801360               0.999999984              -0.000356991              -0.000823291               0.999999984              -0.000356455              -0.000845321               0.999999984              -0.000351117              -0.000865137               0.999999984              -0.000339842              -0.000881214               0.999999984              -0.000321934              -0.000892149               0.999999984              -0.000297481              -0.000897390               0.999999984              -0.000267309              -0.000897783               0.999999984              -0.000232654              -0.000894301               0.999999984              -0.000194837              -0.000888043               0.999999984              -0.000154821              -0.000879820               0.999999984              -0.000113574              -0.000870567               0.999999984              -0.000071828              -0.000860838               0.999999984              -0.000432439              -0.001026481               0.999999984              -0.000327356              -0.000920986               0.999999984              -0.000296270              -0.000884236               0.999999984              -0.000290236              -0.000880458               0.999999984              -0.000292689              -0.000892534               0.999999984              -0.000296033              -0.000911554               0.999999984              -0.000296875              -0.000932659               0.999999984              -0.000293565              -0.000953201               0.999999984              -0.000285258              -0.000971779               0.999999984              -0.000271112              -0.000987086               0.999999984              -0.000250607              -0.000998351               0.999999984              -0.000223867              -0.001005371               0.999999984              -0.000191874              -0.001008897               0.999999984              -0.000155781              -0.001009520               0.999999984              -0.000116467              -0.001008245               0.999999984              -0.000075003              -0.001005614               0.999999984              -0.000032637              -0.001002352               0.999999984              -0.000378497              -0.001108182               0.999999984              -0.000273481              -0.001024208               0.999999984              -0.000239367              -0.000989136               0.999999984              -0.000231042              -0.000981673               0.999999984              -0.000232298              -0.000989917               0.999999984              -0.000235566              -0.001006360               0.999999984              -0.000237307              -0.001026558               0.999999984              -0.000235563              -0.001047668               0.999999984              -0.000229624              -0.001068128               0.999999984              -0.000218617              -0.001086836               0.999999984              -0.000201791              -0.001102982               0.999999984              -0.000178934              -0.001115889               0.999999984              -0.000150233              -0.001125695               0.999999984              -0.000116519              -0.001132746               0.999999984              -0.000078556              -0.001137746               0.999999984              -0.000037323              -0.001141333               0.999999984               0.000005978              -0.001144249               0.999999984              -0.000321119              -0.001179695               0.999999984              -0.000222534              -0.001120593               0.999999984              -0.000187145              -0.001091703               0.999999984              -0.000176345              -0.001084029               0.999999984              -0.000175693              -0.001090288               0.999999984              -0.000178198              -0.001105137               0.999999984              -0.000180165              -0.001124693               0.999999984              -0.000179512              -0.001146454               0.999999984              -0.000175422              -0.001168685               0.999999984              -0.000166992              -0.001190409               0.999999984              -0.000153530              -0.001210718               0.999999984              -0.000134563              -0.001228812               0.999999984              -0.000109756              -0.001244387               0.999999984              -0.000079182              -0.001257561               0.999999984              -0.000043232              -0.001268604               0.999999984              -0.000002470              -0.001278098               0.999999984               0.000042231              -0.001286754               0.999999984              -0.000260716              -0.001239937               0.999999984              -0.000174452              -0.001206263               0.999999984              -0.000140336              -0.001186833               0.999999984              -0.000127993              -0.001182006               0.999999984              -0.000125368              -0.001188442               0.999999984              -0.000126577              -0.001202957               0.999999984              -0.000128231              -0.001222650               0.999999984              -0.000128133              -0.001245485               0.999999984              -0.000125274              -0.001269875               0.999999984              -0.000118917              -0.001294638               0.999999984              -0.000108569              -0.001318843               0.999999984              -0.000093335              -0.001341829               0.999999984              -0.000072774              -0.001363012               0.999999984              -0.000046265              -0.001382218               0.999999984              -0.000013366              -0.001399433               0.999999984               0.000025909              -0.001415036               0.999999984               0.000071595              -0.001429473               0.999999984              -0.000197814              -0.001287896               0.999999984              -0.000128806              -0.001277470               0.999999984              -0.000099121              -0.001268837               0.999999984              -0.000086950              -0.001268784               0.999999984              -0.000083082              -0.001277270               0.999999984              -0.000083038              -0.001292679               0.999999984              -0.000083970              -0.001313319               0.999999984              -0.000084009              -0.001337622               0.999999984              -0.000082088              -0.001364291               0.999999984              -0.000077513              -0.001392193               0.999999984              -0.000069827              -0.001420343               0.999999984              -0.000058485              -0.001448175               0.999999984              -0.000042503              -0.001474966               0.999999984              -0.000020931              -0.001500390               0.999999984               0.000007009              -0.001524125               0.999999984               0.000042329              -0.001546181               0.999999984               0.000086134              -0.001566777               0.999999984              -0.000132996              -0.001322753               0.999999984              -0.000084967              -0.001330901               0.999999984              -0.000062924              -0.001332233               0.999999984              -0.000053046              -0.001337368               0.999999984              -0.000049227              -0.001348621               0.999999984              -0.000048469              -0.001365729               0.999999984              -0.000048768              -0.001387705               0.999999984              -0.000048794              -0.001413585               0.999999984              -0.000047491              -0.001442384               0.999999984              -0.000044545              -0.001473148               0.999999984              -0.000039575              -0.001504883               0.999999984              -0.000032002              -0.001537050               0.999999984              -0.000021027              -0.001569206               0.999999984              -0.000005676              -0.001600646               0.999999984               0.000014941              -0.001630848               0.999999984               0.000042259              -0.001659487               0.999999984               0.000078239              -0.001686293               0.999999984              -0.000066839              -0.001343922               0.999999984              -0.000042231              -0.001364094               0.999999984              -0.000030454              -0.001372448               0.999999984              -0.000024925              -0.001381596               0.999999984              -0.000022521              -0.001395136               0.999999984              -0.000021862              -0.001413655               0.999999984              -0.000021906              -0.001436803               0.999999984              -0.000021876              -0.001463905               0.999999984              -0.000021189              -0.001494232               0.999999984              -0.000019782              -0.001527001               0.999999984              -0.000017379              -0.001561407               0.999999984              -0.000013569              -0.001596857               0.999999984              -0.000007942              -0.001632929               0.999999984               0.000000049              -0.001668995               0.999999984               0.000011142              -0.001704348               0.999999984               0.000026182              -0.001738390               0.999999984               0.000046832              -0.001770357               0.999999984               0.000000000              -0.001350965               0.999999984               0.000000000              -0.001375315               0.999999984              -0.000000000              -0.001386231               0.999999984              -0.000000000              -0.001396922               0.999999984              -0.000000000              -0.001411404               0.999999984               0.000000000              -0.001430464               0.999999984               0.000000000              -0.001454050               0.999999984               0.000000000              -0.001481604               0.999999984               0.000000000              -0.001512422               0.999999984               0.000000000              -0.001545871               0.999999984              -0.000000000              -0.001581312               0.999999984              -0.000000000              -0.001618097               0.999999984              -0.000000000              -0.001655759               0.999999984              -0.000000000              -0.001693687               0.999999984              -0.000000000              -0.001731131               0.999999984               0.000000000              -0.001767311               0.999999984               0.000000000              -0.001801277               0.999999984               0.000706166              -0.000000000               0.999999984               0.000756453               0.000000000               0.999999984               0.000778114               0.000000000               0.999999984               0.000789932              -0.000000000               0.999999984               0.000799102              -0.000000000               0.999999984               0.000808242               0.000000000               0.999999984               0.000818271              -0.000000000               0.999999984               0.000829544               0.000000000               0.999999984               0.000842001               0.000000000               0.999999984               0.000855488              -0.000000000               0.999999984               0.000869610              -0.000000000               0.999999984               0.000884015               0.000000000               0.999999984               0.000898412               0.000000000               0.999999984               0.000912623              -0.000000000               0.999999984               0.000926485               0.000000000               0.999999984               0.000939485              -0.000000000               0.999999984               0.000950902               0.000000000               0.999999984               0.000702404              -0.000130101               0.999999984               0.000748955              -0.000106189               0.999999984               0.000768218              -0.000095682               0.999999984               0.000778632              -0.000092287               0.999999984               0.000786917              -0.000092392               0.999999984               0.000795459              -0.000094334               0.999999984               0.000805025              -0.000097216               0.999999984               0.000815775              -0.000100411               0.999999984               0.000827629              -0.000103537               0.999999984               0.000840325              -0.000106132               0.999999984               0.000853522              -0.000107873               0.999999984               0.000866939              -0.000108564               0.999999984               0.000880320              -0.000108041               0.999999984               0.000893370              -0.000106018               0.999999984               0.000905687              -0.000101860               0.999999984               0.000916830              -0.000094689               0.999999984               0.000926217              -0.000083341               0.999999984               0.000690826              -0.000258959               0.999999984               0.000726473              -0.000211655               0.999999984               0.000739136              -0.000191782               0.999999984               0.000745628              -0.000185766               0.999999984               0.000751447              -0.000186610               0.999999984               0.000758393              -0.000190939               0.999999984               0.000766569              -0.000196823               0.999999984               0.000775838              -0.000203156               0.999999984               0.000786013              -0.000209245               0.999999984               0.000796753              -0.000214314               0.999999984               0.000807671              -0.000217848               0.999999984               0.000818387              -0.000219361               0.999999984               0.000828610              -0.000218383               0.999999984               0.000837846              -0.000214216               0.999999984               0.000845657              -0.000205933               0.999999984               0.000851703              -0.000192603               0.999999984               0.000855704              -0.000172511               0.999999984               0.000671754              -0.000385208               0.999999984               0.000690284              -0.000315861               0.999999984               0.000693421              -0.000288533               0.999999984               0.000694633              -0.000281364               0.999999984               0.000697439              -0.000283991               0.999999984               0.000702278              -0.000291240               0.999999984               0.000708689              -0.000300352               0.999999984               0.000716224              -0.000309809               0.999999984               0.000724220              -0.000318558               0.999999984               0.000732114              -0.000325917               0.999999984               0.000739441              -0.000331015               0.999999984               0.000745826              -0.000333259               0.999999984               0.000750780              -0.000331770               0.999999984               0.000753912              -0.000325742               0.999999984               0.000754972              -0.000314539               0.999999984               0.000753751              -0.000297237               0.999999984               0.000750502              -0.000272851               0.999999984               0.000645638              -0.000507619               0.999999984               0.000642119              -0.000418578               0.999999984               0.000634563              -0.000386303               0.999999984               0.000630634              -0.000379739               0.999999984               0.000630855              -0.000385134               0.999999984               0.000634074              -0.000395657               0.999999984               0.000639010              -0.000408070               0.999999984               0.000644628              -0.000420438               0.999999984               0.000649977              -0.000431665               0.999999984               0.000654318              -0.000440803               0.999999984               0.000657126              -0.000447097               0.999999984               0.000657903              -0.000449676               0.999999984               0.000656174              -0.000447630               0.999999984               0.000651698              -0.000440301               0.999999984               0.000644582              -0.000427480               0.999999984               0.000635189              -0.000409013               0.999999984               0.000624207              -0.000384967               0.999999984               0.000612755              -0.000625169               0.999999984               0.000584357              -0.000519855               0.999999984               0.000566985              -0.000485245               0.999999984               0.000559455              -0.000480571               0.999999984               0.000558440              -0.000489198               0.999999984               0.000560907              -0.000503191               0.999999984               0.000564646              -0.000518776               0.999999984               0.000568176              -0.000533822               0.999999984               0.000570414              -0.000546980               0.999999984               0.000570599              -0.000557454               0.999999984               0.000567993              -0.000564223               0.999999984               0.000562075              -0.000566492               0.999999984               0.000552697              -0.000563621               0.999999984               0.000540093              -0.000555496               0.999999984               0.000524829              -0.000542493               0.999999984               0.000507626              -0.000525038               0.999999984               0.000489349              -0.000504267               0.999999984               0.000573744              -0.000736763               0.999999984               0.000520154              -0.000619675               0.999999984               0.000495395              -0.000584805               0.999999984               0.000486555              -0.000582727               0.999999984               0.000485887              -0.000594586               0.999999984               0.000488261              -0.000611771               0.999999984               0.000490867              -0.000630049               0.999999984               0.000491975              -0.000647284               0.999999984               0.000490493              -0.000661971               0.999999984               0.000485642              -0.000673128               0.999999984               0.000476704              -0.000679631               0.999999984               0.000463457              -0.000681057               0.999999984               0.000446253              -0.000677415               0.999999984               0.000425712              -0.000669092               0.999999984               0.000402735              -0.000656850               0.999999984               0.000378134              -0.000641638               0.999999984               0.000352553              -0.000624534               0.999999984               0.000529633              -0.000841119               0.999999984               0.000452648              -0.000717792               0.999999984               0.000423915              -0.000684098               0.999999984               0.000416381              -0.000684525               0.999999984               0.000417110              -0.000699304               0.999999984               0.000419727              -0.000719078               0.999999984               0.000420973              -0.000739528               0.999999984               0.000419179              -0.000758264               0.999999984               0.000413234              -0.000773965               0.999999984               0.000402423              -0.000785207               0.999999984               0.000386304              -0.000791024               0.999999984               0.000365136              -0.000791698               0.999999984               0.000339672              -0.000787785               0.999999984               0.000310908              -0.000780035               0.999999984               0.000279825              -0.000769447               0.999999984               0.000247125              -0.000756894               0.999999984               0.000213497              -0.000743191               0.999999984               0.000481796              -0.000936502               0.999999984               0.000384156              -0.000814110               0.999999984               0.000356248              -0.000781840               0.999999984               0.000351598              -0.000784298               0.999999984               0.000354345              -0.000801360               0.999999984               0.000356991              -0.000823291               0.999999984               0.000356455              -0.000845321               0.999999984               0.000351117              -0.000865137               0.999999984               0.000339842              -0.000881214               0.999999984               0.000321934              -0.000892149               0.999999984               0.000297481              -0.000897390               0.999999984               0.000267309              -0.000897783               0.999999984               0.000232654              -0.000894301               0.999999984               0.000194837              -0.000888043               0.999999984               0.000154821              -0.000879820               0.999999984               0.000113574              -0.000870567               0.999999984               0.000071828              -0.000860838               0.999999984               0.000432439              -0.001026481               0.999999984               0.000327356              -0.000920986               0.999999984               0.000296270              -0.000884236               0.999999984               0.000290236              -0.000880458               0.999999984               0.000292689              -0.000892534               0.999999984               0.000296033              -0.000911554               0.999999984               0.000296875              -0.000932659               0.999999984               0.000293565              -0.000953201               0.999999984               0.000285258              -0.000971779               0.999999984               0.000271112              -0.000987086               0.999999984               0.000250607              -0.000998351               0.999999984               0.000223867              -0.001005371               0.999999984               0.000191874              -0.001008897               0.999999984               0.000155781              -0.001009520               0.999999984               0.000116467              -0.001008245               0.999999984               0.000075003              -0.001005614               0.999999984               0.000032637              -0.001002352               0.999999984               0.000378497              -0.001108182               0.999999984               0.000273481              -0.001024208               0.999999984               0.000239367              -0.000989136               0.999999984               0.000231042              -0.000981673               0.999999984               0.000232298              -0.000989917               0.999999984               0.000235566              -0.001006360               0.999999984               0.000237307              -0.001026558               0.999999984               0.000235563              -0.001047668               0.999999984               0.000229624              -0.001068128               0.999999984               0.000218617              -0.001086836               0.999999984               0.000201791              -0.001102982               0.999999984               0.000178934              -0.001115889               0.999999984               0.000150233              -0.001125695               0.999999984               0.000116519              -0.001132746               0.999999984               0.000078556              -0.001137746               0.999999984               0.000037323              -0.001141333               0.999999984              -0.000005978              -0.001144249               0.999999984               0.000321119              -0.001179695               0.999999984               0.000222534              -0.001120593               0.999999984               0.000187145              -0.001091703               0.999999984               0.000176345              -0.001084029               0.999999984               0.000175693              -0.001090288               0.999999984               0.000178198              -0.001105137               0.999999984               0.000180165              -0.001124693               0.999999984               0.000179512              -0.001146454               0.999999984               0.000175422              -0.001168685               0.999999984               0.000166992              -0.001190409               0.999999984               0.000153530              -0.001210718               0.999999984               0.000134563              -0.001228812               0.999999984               0.000109756              -0.001244387               0.999999984               0.000079182              -0.001257561               0.999999984               0.000043232              -0.001268604               0.999999984               0.000002470              -0.001278098               0.999999984              -0.000042231              -0.001286754               0.999999984               0.000260716              -0.001239937               0.999999984               0.000174452              -0.001206263               0.999999984               0.000140336              -0.001186833               0.999999984               0.000127993              -0.001182006               0.999999984               0.000125368              -0.001188442               0.999999984               0.000126577              -0.001202957               0.999999984               0.000128231              -0.001222650               0.999999984               0.000128133              -0.001245485               0.999999984               0.000125274              -0.001269875               0.999999984               0.000118917              -0.001294638               0.999999984               0.000108569              -0.001318843               0.999999984               0.000093335              -0.001341829               0.999999984               0.000072774              -0.001363012               0.999999984               0.000046265              -0.001382218               0.999999984               0.000013366              -0.001399433               0.999999984              -0.000025909              -0.001415036               0.999999984              -0.000071595              -0.001429473               0.999999984               0.000197814              -0.001287896               0.999999984               0.000128806              -0.001277470               0.999999984               0.000099121              -0.001268837               0.999999984               0.000086950              -0.001268784               0.999999984               0.000083082              -0.001277270               0.999999984               0.000083038              -0.001292679               0.999999984               0.000083970              -0.001313319               0.999999984               0.000084009              -0.001337622               0.999999984               0.000082088              -0.001364291               0.999999984               0.000077513              -0.001392193               0.999999984               0.000069827              -0.001420343               0.999999984               0.000058485              -0.001448175               0.999999984               0.000042503              -0.001474966               0.999999984               0.000020931              -0.001500390               0.999999984              -0.000007009              -0.001524125               0.999999984              -0.000042329              -0.001546181               0.999999984              -0.000086134              -0.001566777               0.999999984               0.000132996              -0.001322753               0.999999984               0.000084967              -0.001330901               0.999999984               0.000062924              -0.001332233               0.999999984               0.000053046              -0.001337368               0.999999984               0.000049227              -0.001348621               0.999999984               0.000048469              -0.001365729               0.999999984               0.000048768              -0.001387705               0.999999984               0.000048794              -0.001413585               0.999999984               0.000047491              -0.001442384               0.999999984               0.000044545              -0.001473148               0.999999984               0.000039575              -0.001504883               0.999999984               0.000032002              -0.001537050               0.999999984               0.000021027              -0.001569206               0.999999984               0.000005676              -0.001600646               0.999999984              -0.000014941              -0.001630848               0.999999984              -0.000042259              -0.001659487               0.999999984              -0.000078239              -0.001686293               0.999999984               0.000066839              -0.001343922               0.999999984               0.000042231              -0.001364094               0.999999984               0.000030454              -0.001372448               0.999999984               0.000024925              -0.001381596               0.999999984               0.000022521              -0.001395136               0.999999984               0.000021862              -0.001413655               0.999999984               0.000021906              -0.001436803               0.999999984               0.000021876              -0.001463905               0.999999984               0.000021189              -0.001494232               0.999999984               0.000019782              -0.001527001               0.999999984               0.000017379              -0.001561407               0.999999984               0.000013569              -0.001596857               0.999999984               0.000007942              -0.001632929               0.999999984              -0.000000049              -0.001668995               0.999999984              -0.000011142              -0.001704348               0.999999984              -0.000026182              -0.001738390               0.999999984              -0.000046832              -0.001770357               0.999999984               0.000000000              -0.001350965               0.999999984               0.000000000              -0.001375315               0.999999984              -0.000000000              -0.001386231               0.999999984              -0.000000000              -0.001396922               0.999999984              -0.000000000              -0.001411404               0.999999984               0.000000000              -0.001430464               0.999999984               0.000000000              -0.001454050               0.999999984               0.000000000              -0.001481604               0.999999984               0.000000000              -0.001512422               0.999999984               0.000000000              -0.001545871               0.999999984              -0.000000000              -0.001581312               0.999999984              -0.000000000              -0.001618097               0.999999984              -0.000000000              -0.001655759               0.999999984              -0.000000000              -0.001693687               0.999999984              -0.000000000              -0.001731131               0.999999984               0.000000000              -0.001767311               0.999999984               0.000000000              -0.001801277               0.999999984               0.000706166              -0.000000000               0.999999984               0.000756453               0.000000000               0.999999984               0.000778114               0.000000000               0.999999984               0.000789932              -0.000000000               0.999999984               0.000799102              -0.000000000               0.999999984               0.000808242               0.000000000               0.999999984               0.000818271              -0.000000000               0.999999984               0.000829544               0.000000000               0.999999984               0.000842001               0.000000000               0.999999984               0.000855488              -0.000000000               0.999999984               0.000869610              -0.000000000               0.999999984               0.000884015               0.000000000               0.999999984               0.000898412               0.000000000               0.999999984               0.000912623              -0.000000000               0.999999984               0.000926485               0.000000000               0.999999984               0.000939485              -0.000000000               0.999999984               0.000950902               0.000000000               0.999999984               0.000702404               0.000130101               0.999999984               0.000748955               0.000106189               0.999999984               0.000768218               0.000095682               0.999999984               0.000778632               0.000092287               0.999999984               0.000786917               0.000092392               0.999999984               0.000795459               0.000094334               0.999999984               0.000805025               0.000097216               0.999999984               0.000815775               0.000100411               0.999999984               0.000827629               0.000103537               0.999999984               0.000840325               0.000106132               0.999999984               0.000853522               0.000107873               0.999999984               0.000866939               0.000108564               0.999999984               0.000880320               0.000108041               0.999999984               0.000893370               0.000106018               0.999999984               0.000905687               0.000101860               0.999999984               0.000916830               0.000094689               0.999999984               0.000926217               0.000083341               0.999999984               0.000690826               0.000258959               0.999999984               0.000726473               0.000211655               0.999999984               0.000739136               0.000191782               0.999999984               0.000745628               0.000185766               0.999999984               0.000751447               0.000186610               0.999999984               0.000758393               0.000190939               0.999999984               0.000766569               0.000196823               0.999999984               0.000775838               0.000203156               0.999999984               0.000786013               0.000209245               0.999999984               0.000796753               0.000214314               0.999999984               0.000807671               0.000217848               0.999999984               0.000818387               0.000219361               0.999999984               0.000828610               0.000218383               0.999999984               0.000837846               0.000214216               0.999999984               0.000845657               0.000205933               0.999999984               0.000851703               0.000192603               0.999999984               0.000855704               0.000172511               0.999999984               0.000671754               0.000385208               0.999999984               0.000690284               0.000315861               0.999999984               0.000693421               0.000288533               0.999999984               0.000694633               0.000281364               0.999999984               0.000697439               0.000283991               0.999999984               0.000702278               0.000291240               0.999999984               0.000708689               0.000300352               0.999999984               0.000716224               0.000309809               0.999999984               0.000724220               0.000318558               0.999999984               0.000732114               0.000325917               0.999999984               0.000739441               0.000331015               0.999999984               0.000745826               0.000333259               0.999999984               0.000750780               0.000331770               0.999999984               0.000753912               0.000325742               0.999999984               0.000754972               0.000314539               0.999999984               0.000753751               0.000297237               0.999999984               0.000750502               0.000272851               0.999999984               0.000645638               0.000507619               0.999999984               0.000642119               0.000418578               0.999999984               0.000634563               0.000386303               0.999999984               0.000630634               0.000379739               0.999999984               0.000630855               0.000385134               0.999999984               0.000634074               0.000395657               0.999999984               0.000639010               0.000408070               0.999999984               0.000644628               0.000420438               0.999999984               0.000649977               0.000431665               0.999999984               0.000654318               0.000440803               0.999999984               0.000657126               0.000447097               0.999999984               0.000657903               0.000449676               0.999999984               0.000656174               0.000447630               0.999999984               0.000651698               0.000440301               0.999999984               0.000644582               0.000427480               0.999999984               0.000635189               0.000409013               0.999999984               0.000624207               0.000384967               0.999999984               0.000612755               0.000625169               0.999999984               0.000584357               0.000519855               0.999999984               0.000566985               0.000485245               0.999999984               0.000559455               0.000480571               0.999999984               0.000558440               0.000489198               0.999999984               0.000560907               0.000503191               0.999999984               0.000564646               0.000518776               0.999999984               0.000568176               0.000533822               0.999999984               0.000570414               0.000546980               0.999999984               0.000570599               0.000557454               0.999999984               0.000567993               0.000564223               0.999999984               0.000562075               0.000566492               0.999999984               0.000552697               0.000563621               0.999999984               0.000540093               0.000555496               0.999999984               0.000524829               0.000542493               0.999999984               0.000507626               0.000525038               0.999999984               0.000489349               0.000504267               0.999999984               0.000573744               0.000736763               0.999999984               0.000520154               0.000619675               0.999999984               0.000495395               0.000584805               0.999999984               0.000486555               0.000582727               0.999999984               0.000485887               0.000594586               0.999999984               0.000488261               0.000611771               0.999999984               0.000490867               0.000630049               0.999999984               0.000491975               0.000647284               0.999999984               0.000490493               0.000661971               0.999999984               0.000485642               0.000673128               0.999999984               0.000476704               0.000679631               0.999999984               0.000463457               0.000681057               0.999999984               0.000446253               0.000677415               0.999999984               0.000425712               0.000669092               0.999999984               0.000402735               0.000656850               0.999999984               0.000378134               0.000641638               0.999999984               0.000352553               0.000624534               0.999999984               0.000529633               0.000841119               0.999999984               0.000452648               0.000717792               0.999999984               0.000423915               0.000684098               0.999999984               0.000416381               0.000684525               0.999999984               0.000417110               0.000699304               0.999999984               0.000419727               0.000719078               0.999999984               0.000420973               0.000739528               0.999999984               0.000419179               0.000758264               0.999999984               0.000413234               0.000773965               0.999999984               0.000402423               0.000785207               0.999999984               0.000386304               0.000791024               0.999999984               0.000365136               0.000791698               0.999999984               0.000339672               0.000787785               0.999999984               0.000310908               0.000780035               0.999999984               0.000279825               0.000769447               0.999999984               0.000247125               0.000756894               0.999999984               0.000213497               0.000743191               0.999999984               0.000481796               0.000936502               0.999999984               0.000384156               0.000814110               0.999999984               0.000356248               0.000781840               0.999999984               0.000351598               0.000784298               0.999999984               0.000354345               0.000801360               0.999999984               0.000356991               0.000823291               0.999999984               0.000356455               0.000845321               0.999999984               0.000351117               0.000865137               0.999999984               0.000339842               0.000881214               0.999999984               0.000321934               0.000892149               0.999999984               0.000297481               0.000897390               0.999999984               0.000267309               0.000897783               0.999999984               0.000232654               0.000894301               0.999999984               0.000194837               0.000888043               0.999999984               0.000154821               0.000879820               0.999999984               0.000113574               0.000870567               0.999999984               0.000071828               0.000860838               0.999999984               0.000432439               0.001026481               0.999999984               0.000327356               0.000920986               0.999999984               0.000296270               0.000884236               0.999999984               0.000290236               0.000880458               0.999999984               0.000292689               0.000892534               0.999999984               0.000296033               0.000911554               0.999999984               0.000296875               0.000932659               0.999999984               0.000293565               0.000953201               0.999999984               0.000285258               0.000971779               0.999999984               0.000271112               0.000987086               0.999999984               0.000250607               0.000998351               0.999999984               0.000223867               0.001005371               0.999999984               0.000191874               0.001008897               0.999999984               0.000155781               0.001009520               0.999999984               0.000116467               0.001008245               0.999999984               0.000075003               0.001005614               0.999999984               0.000032637               0.001002352               0.999999984               0.000378497               0.001108182               0.999999984               0.000273481               0.001024208               0.999999984               0.000239367               0.000989136               0.999999984               0.000231042               0.000981673               0.999999984               0.000232298               0.000989917               0.999999984               0.000235566               0.001006360               0.999999984               0.000237307               0.001026558               0.999999984               0.000235563               0.001047668               0.999999984               0.000229624               0.001068128               0.999999984               0.000218617               0.001086836               0.999999984               0.000201791               0.001102982               0.999999984               0.000178934               0.001115889               0.999999984               0.000150233               0.001125695               0.999999984               0.000116519               0.001132746               0.999999984               0.000078556               0.001137746               0.999999984               0.000037323               0.001141333               0.999999984              -0.000005978               0.001144249               0.999999984               0.000321119               0.001179695               0.999999984               0.000222534               0.001120593               0.999999984               0.000187145               0.001091703               0.999999984               0.000176345               0.001084029               0.999999984               0.000175693               0.001090288               0.999999984               0.000178198               0.001105137               0.999999984               0.000180165               0.001124693               0.999999984               0.000179512               0.001146454               0.999999984               0.000175422               0.001168685               0.999999984               0.000166992               0.001190409               0.999999984               0.000153530               0.001210718               0.999999984               0.000134563               0.001228812               0.999999984               0.000109756               0.001244387               0.999999984               0.000079182               0.001257561               0.999999984               0.000043232               0.001268604               0.999999984               0.000002470               0.001278098               0.999999984              -0.000042231               0.001286754               0.999999984               0.000260716               0.001239937               0.999999984               0.000174452               0.001206263               0.999999984               0.000140336               0.001186833               0.999999984               0.000127993               0.001182006               0.999999984               0.000125368               0.001188442               0.999999984               0.000126577               0.001202957               0.999999984               0.000128231               0.001222650               0.999999984               0.000128133               0.001245485               0.999999984               0.000125274               0.001269875               0.999999984               0.000118917               0.001294638               0.999999984               0.000108569               0.001318843               0.999999984               0.000093335               0.001341829               0.999999984               0.000072774               0.001363012               0.999999984               0.000046265               0.001382218               0.999999984               0.000013366               0.001399433               0.999999984              -0.000025909               0.001415036               0.999999984              -0.000071595               0.001429473               0.999999984               0.000197814               0.001287896               0.999999984               0.000128806               0.001277470               0.999999984               0.000099121               0.001268837               0.999999984               0.000086950               0.001268784               0.999999984               0.000083082               0.001277270               0.999999984               0.000083038               0.001292679               0.999999984               0.000083970               0.001313319               0.999999984               0.000084009               0.001337622               0.999999984               0.000082088               0.001364291               0.999999984               0.000077513               0.001392193               0.999999984               0.000069827               0.001420343               0.999999984               0.000058485               0.001448175               0.999999984               0.000042503               0.001474966               0.999999984               0.000020931               0.001500390               0.999999984              -0.000007009               0.001524125               0.999999984              -0.000042329               0.001546181               0.999999984              -0.000086134               0.001566777               0.999999984               0.000132996               0.001322753               0.999999984               0.000084967               0.001330901               0.999999984               0.000062924               0.001332233               0.999999984               0.000053046               0.001337368               0.999999984               0.000049227               0.001348621               0.999999984               0.000048469               0.001365729               0.999999984               0.000048768               0.001387705               0.999999984               0.000048794               0.001413585               0.999999984               0.000047491               0.001442384               0.999999984               0.000044545               0.001473148               0.999999984               0.000039575               0.001504883               0.999999984               0.000032002               0.001537050               0.999999984               0.000021027               0.001569206               0.999999984               0.000005676               0.001600646               0.999999984              -0.000014941               0.001630848               0.999999984              -0.000042259               0.001659487               0.999999984              -0.000078239               0.001686293               0.999999984               0.000066839               0.001343922               0.999999984               0.000042231               0.001364094               0.999999984               0.000030454               0.001372448               0.999999984               0.000024925               0.001381596               0.999999984               0.000022521               0.001395136               0.999999984               0.000021862               0.001413655               0.999999984               0.000021906               0.001436803               0.999999984               0.000021876               0.001463905               0.999999984               0.000021189               0.001494232               0.999999984               0.000019782               0.001527001               0.999999984               0.000017379               0.001561407               0.999999984               0.000013569               0.001596857               0.999999984               0.000007942               0.001632929               0.999999984              -0.000000049               0.001668995               0.999999984              -0.000011142               0.001704348               0.999999984              -0.000026182               0.001738390               0.999999984              -0.000046832               0.001770357               0.999999984               0.000000000               0.001350965               0.999999984              -0.000000000               0.001375315               0.999999984              -0.000000000               0.001386231               0.999999984              -0.000000000               0.001396922               0.999999984               0.000000000               0.001411404               0.999999984               0.000000000               0.001430464               0.999999984              -0.000000000               0.001454050               0.999999984               0.000000000               0.001481604               0.999999984              -0.000000000               0.001512422               0.999999984              -0.000000000               0.001545871               0.999999984               0.000000000               0.001581312               0.999999984              -0.000000000               0.001618097               0.999999984              -0.000000000               0.001655759               0.999999984              -0.000000000               0.001693687               0.999999984              -0.000000000               0.001731131               0.999999984              -0.000000000               0.001767311               0.999999984               0.000000000               0.001801277               0.999999984 </DataArray>
<DataArray type="Float64"                                    Name="defo"                                                      NumberOfComponents=" 3" format="ascii">
             -0.000706166               0.000000000               0.999999984              -0.000756453               0.000000000               0.999999984              -0.000778114               0.000000000               0.999999984              -0.000789932               0.000000000               0.999999984              -0.000799102               0.000000000               0.999999984              -0.000808242               0.000000000               0.999999984              -0.000818271              -0.000000000               0.999999984              -0.000829544               0.000000000               0.999999984              -0.000842001              -0.000000000               0.999999984              -0.000855488              -0.000000000               0.999999984              -0.000869610               0.000000000               0.999999984              -0.000884015               0.000000000               0.999999984              -0.000898412               0.000000000               0.999999984              -0.000912623               0.000000000               0.999999984              -0.000926485               0.000000000               0.999999984              -0.000939485               0.000000000               0.999999984              -0.000950902              -0.000000000               0.999999984              -0.000702404               0.000130101               0.999999984              -0.000748955               0.000106189               0.999999984              -0.000768218               0.000095682               0.999999984              -0.000778632               0.000092287               0.999999984              -0.000786917               0.000092392               0.999999984              -0.000795459               0.000094334               0.999999984              -0.000805025               0.000097216               0.999999984              -0.000815775               0.000100411               0.999999984              -0.000827629               0.000103537               0.999999984              -0.000840325               0.000106132               0.999999984              -0.000853522               0.000107873               0.999999984              -0.000866939               0.000108564               0.999999984              -0.000880320               0.000108041               0.999999984              -0.000893370               0.000106018               0.999999984              -0.000905687               0.000101860               0.999999984              -0.000916830               0.000094689               0.999999984              -0.000926217               0.000083341               0.999999984              -0.000690826               0.000258959               0.999999984              -0.000726473               0.000211655               0.999999984              -0.000739136               0.000191782               0.999999984              -0.000745628               0.000185766               0.999999984              -0.000751447               0.000186610               0.999999984              -0.000758393               0.000190939               0.999999984              -0.000766569               0.000196823               0.999999984              -0.000775838               0.000203156               0.999999984              -0.000786013               0.000209245               0.999999984              -0.000796753               0.000214314               0.999999984              -0.000807671               0.000217848               0.999999984              -0.000818387               0.000219361               0.999999984              -0.000828610               0.000218383               0.999999984              -0.000837846               0.000214216               0.999999984              -0.000845657               0.000205933               0.999999984              -0.000851703               0.000192603               0.999999984              -0.000855704               0.000172511               0.999999984              -0.000671754               0.000385208               0.999999984              -0.000690284               0.000315861               0.999999984              -0.000693421               0.000288533               0.999999984              -0.000694633               0.000281364               0.999999984              -0.000697439               0.000283991               0.999999984              -0.000702278               0.000291240               0.999999984              -0.000708689               0.000300352               0.999999984              -0.000716224               0.000309809               0.999999984              -0.000724220               0.000318558               0.999999984              -0.000732114               0.000325917               0.999999984              -0.000739441               0.000331015               0.999999984              -0.000745826               0.000333259               0.999999984              -0.000750780               0.000331770               0.999999984              -0.000753912               0.000325742               0.999999984              -0.000754972               0.000314539               0.999999984              -0.000753751               0.000297237               0.999999984              -0.000750502               0.000272851               0.999999984              -0.000645638               0.000507619               0.999999984              -0.000642119               0.000418578               0.999999984              -0.000634563               0.000386303               0.999999984              -0.000630634               0.000379739               0.999999984              -0.000630855               0.000385134               0.999999984              -0.000634074               0.000395657               0.999999984              -0.000639010               0.000408070               0.999999984              -0.000644628               0.000420438               0.999999984              -0.000649977               0.000431665               0.999999984              -0.000654318               0.000440803               0.999999984              -0.000657126               0.000447097               0.999999984              -0.000657903               0.000449676               0.999999984              -0.000656174               0.000447630               0.999999984              -0.000651698               0.000440301               0.999999984              -0.000644582               0.000427480               0.999999984              -0.000635189               0.000409013               0.999999984              -0.000624207               0.000384967               0.999999984              -0.000612755               0.000625169               0.999999984              -0.000584357               0.000519855               0.999999984              -0.000566985               0.000485245               0.999999984              -0.000559455               0.000480571               0.999999984              -0.000558440               0.000489198               0.999999984              -0.000560907               0.000503191               0.999999984              -0.000564646               0.000518776               0.999999984              -0.000568176               0.000533822               0.999999984              -0.000570414               0.000546980               0.999999984              -0.000570599               0.000557454               0.999999984              -0.000567993               0.000564223               0.999999984              -0.000562075               0.000566492               0.999999984              -0.000552697               0.000563621               0.999999984              -0.000540093               0.000555496               0.999999984              -0.000524829               0.000542493               0.999999984              -0.000507626               0.000525038               0.999999984              -0.000489349               0.000504267               0.999999984              -0.000573744               0.000736763               0.999999984              -0.000520154               0.000619675               0.999999984              -0.000495395               0.000584805               0.999999984              -0.000486555               0.000582727               0.999999984              -0.000485887               0.000594586               0.999999984              -0.000488261               0.000611771               0.999999984              -0.000490867               0.000630049               0.999999984              -0.000491975               0.000647284               0.999999984              -0.000490493               0.000661971               0.999999984              -0.000485642               0.000673128               0.999999984              -0.000476704               0.000679631               0.999999984              -0.000463457               0.000681057               0.999999984              -0.000446253               0.000677415               0.999999984              -0.000425712               0.000669092               0.999999984              -0.000402735               0.000656850               0.999999984              -0.000378134               0.000641638               0.999999984              -0.000352553               0.000624534               0.999999984              -0.000529633               0.000841119               0.999999984              -0.000452648               0.000717792               0.999999984              -0.000423915               0.000684098               0.999999984              -0.000416381               0.000684525               0.999999984              -0.000417110               0.000699304               0.999999984              -0.000419727               0.000719078               0.999999984              -0.000420973               0.000739528               0.999999984              -0.000419179               0.000758264               0.999999984              -0.000413234               0.000773965               0.999999984              -0.000402423               0.000785207               0.999999984              -0.000386304               0.000791024               0.999999984              -0.000365136               0.000791698               0.999999984              -0.000339672               0.000787785               0.999999984              -0.000310908               0.000780035               0.999999984              -0.000279825               0.000769447               0.999999984              -0.000247125               0.000756894               0.999999984              -0.000213497               0.000743191               0.999999984              -0.000481796               0.000936502               0.999999984              -0.000384156               0.000814110               0.999999984              -0.000356248               0.000781840               0.999999984              -0.000351598               0.000784298               0.999999984              -0.000354345               0.000801360               0.999999984              -0.000356991               0.000823291               0.999999984              -0.000356455               0.000845321               0.999999984              -0.000351117               0.000865137               0.999999984              -0.000339842               0.000881214               0.999999984              -0.000321934               0.000892149               0.999999984              -0.000297481               0.000897390               0.999999984              -0.000267309               0.000897783               0.999999984              -0.000232654               0.000894301               0.999999984              -0.000194837               0.000888043               0.999999984              -0.000154821               0.000879820               0.999999984              -0.000113574               0.000870567               0.999999984              -0.000071828               0.000860838               0.999999984              -0.000432439               0.001026481               0.999999984              -0.000327356               0.000920986               0.999999984              -0.000296270               0.000884236               0.999999984              -0.000290236               0.000880458               0.999999984              -0.000292689               0.000892534               0.999999984              -0.000296033               0.000911554               0.999999984              -0.000296875               0.000932659               0.999999984              -0.000293565               0.000953201               0.999999984              -0.000285258               0.000971779               0.999999984              -0.000271112               0.000987086               0.999999984              -0.000250607               0.000998351               0.999999984              -0.000223867               0.001005371               0.999999984              -0.000191874               0.001008897               0.999999984              -0.000155781               0.001009520               0.999999984              -0.000116467               0.001008245               0.999999984              -0.000075003               0.001005614               0.999999984              -0.000032637               0.001002352               0.999999984              -0.000378497               0.001108182               0.999999984              -0.000273481               0.001024208               0.999999984              -0.000239367               0.000989136               0.999999984              -0.000231042               0.000981673               0.999999984              -0.000232298               0.000989917               0.999999984              -0.000235566               0.001006360               0.999999984              -0.000237307               0.001026558               0.999999984              -0.000235563               0.001047668               0.999999984              -0.000229624               0.001068128               0.999999984              -0.000218617               0.001086836               0.999999984              -0.000201791               0.001102982               0.999999984              -0.000178934               0.001115889               0.999999984              -0.000150233               0.001125695               0.999999984              -0.000116519               0.001132746               0.999999984              -0.000078556               0.001137746               0.999999984              -0.000037323               0.001141333               0.999999984               0.000005978               0.001144249               0.999999984              -0.000321119               0.001179695               0.999999984              -0.000222534               0.001120593               0.999999984              -0.000187145               0.001091703               0.999999984              -0.000176345               0.001084029               0.999999984              -0.000175693               0.001090288               0.999999984              -0.000178198               0.001105137               0.999999984              -0.000180165               0.001124693               0.999999984              -0.000179512               0.001146454               0.999999984              -0.000175422               0.001168685               0.999999984              -0.000166992               0.001190409               0.999999984              -0.000153530               0.001210718               0.999999984              -0.000134563               0.001228812               0.999999984              -0.000109756               0.001244387               0.999999984              -0.000079182               0.001257561               0.999999984              -0.000043232               0.001268604               0.999999984              -0.000002470               0.001278098               0.999999984               0.000042231               0.001286754               0.999999984              -0.000260716               0.001239937               0.999999984              -0.000174452               0.001206263               0.999999984              -0.000140336               0.001186833               0.999999984              -0.000127993               0.001182006               0.999999984              -0.000125368               0.001188442               0.999999984              -0.000126577               0.001202957               0.999999984              -0.000128231               0.001222650               0.999999984              -0.000128133               0.001245485               0.999999984              -0.000125274               0.001269875               0.999999984              -0.000118917               0.001294638               0.999999984              -0.000108569               0.001318843               0.999999984              -0.000093335               0.001341829               0.999999984              -0.000072774               0.001363012               0.999999984              -0.000046265               0.001382218               0.999999984              -0.000013366               0.001399433               0.999999984               0.000025909               0.001415036               0.999999984               0.000071595               0.001429473               0.999999984              -0.000197814               0.001287896               0.999999984              -0.000128806               0.001277470               0.999999984              -0.000099121               0.001268837               0.999999984              -0.000086950               0.001268784               0.999999984              -0.000083082               0.001277270               0.999999984              -0.000083038               0.001292679               0.999999984              -0.000083970               0.001313319               0.999999984              -0.000084009               0.001337622               0.999999984              -0.000082088               0.001364291               0.999999984              -0.000077513               0.001392193               0.999999984              -0.000069827               0.001420343               0.999999984              -0.000058485               0.001448175               0.999999984              -0.000042503               0.001474966               0.999999984              -0.000020931               0.001500390               0.999999984               0.000007009               0.001524125               0.999999984               0.000042329               0.001546181               0.999999984               0.000086134               0.001566777               0.999999984              -0.000132996               0.001322753               0.999999984              -0.000084967               0.001330901               0.999999984              -0.000062924               0.001332233               0.999999984              -0.000053046               0.001337368               0.999999984              -0.000049227               0.001348621               0.999999984              -0.000048469               0.001365729               0.999999984              -0.000048768               0.001387705               0.999999984              -0.000048794               0.001413585               0.999999984              -0.000047491               0.001442384               0.999999984              -0.000044545               0.001473148               0.999999984              -0.000039575               0.001504883               0.999999984              -0.000032002               0.001537050               0.999999984              -0.000021027               0.001569206               0.999999984              -0.000005676               0.001600646               0.999999984               0.000014941               0.001630848               0.999999984               0.000042259               0.001659487               0.999999984               0.000078239               0.001686293               0.999999984              -0.000066839               0.001343922               0.999999984              -0.000042231               0.001364094               0.999999984              -0.000030454               0.001372448               0.999999984              -0.000024925               0.001381596               0.999999984              -0.000022521               0.001395136               0.999999984              -0.000021862               0.001413655               0.999999984              -0.000021906               0.001436803               0.999999984              -0.000021876               0.001463905               0.999999984              -0.000021189               0.001494232               0.999999984              -0.000019782               0.001527001               0.999999984              -0.000017379               0.001561407               0.999999984              -0.000013569               0.001596857               0.999999984              -0.000007942               0.001632929               0.999999984               0.000000049               0.001668995               0.999999984               0.000011142               0.001704348               0.999999984               0.000026182               0.001738390               0.999999984               0.000046832               0.001770357               0.999999984               0.000000000               0.001350965               0.999999984              -0.000000000               0.001375315               0.999999984              -0.000000000               0.001386231               0.999999984              -0.000000000               0.001396922               0.999999984               0.000000000               0.001411404               0.999999984               0.000000000               0.001430464               0.999999984              -0.000000000               0.001454050               0.999999984               0.000000000               0.001481604               0.999999984              -0.000000000               0.001512422               0.999999984              -0.000000000               0.001545871               0.999999984               0.000000000               0.001581312               0.999999984              -0.000000000               0.001618097               0.999999984              -0.000000000               0.001655759               0.999999984              -0.000000000               0.001693687               0.999999984              -0.000000000               0.001731131               0.999999984              -0.000000000               0.001767311               0.999999984               0.000000000               0.001801277               0.999999984              -0.000706166               0.000000000               0.999999984              -0.000756453               0.000000000               0.999999984              -0.000778114               0.000000000               0.999999984              -0.000789932               0.000000000               0.999999984              -0.000799102               0.000000000               0.999999984              -0.000808242               0.000000000               0.999999984              -0.000818271              -0.000000000               0.999999984              -0.000829544               0.000000000               0.999999984              -0.000842001              -0.000000000               0.999999984              -0.000855488              -0.000000000               0.999999984              -0.000869610               0.000000000               0.999999984              -0.000884015               0.000000000               0.999999984              -0.000898412               0.000000000               0.999999984              -0.000912623               0.000000000               0.999999984              -0.000926485               0.000000000               0.999999984              -0.000939485               0.000000000               0.999999984              -0.000950902              -0.000000000               0.999999984              -0.000702404              -0.000130101               0.999999984              -0.000748955              -0.000106189               0.999999984              -0.000768218              -0.000095682               0.999999984              -0.000778632              -0.000092287               0.999999984              -0.000786917              -0.000092392               0.999999984              -0.000795459              -0.000094334               0.999999984              -0.000805025              -0.000097216               0.999999984              -0.000815775              -0.000100411               0.999999984              -0.000827629              -0.000103537               0.999999984              -0.000840325              -0.000106132               0.999999984              -0.000853522              -0.000107873               0.999999984              -0.000866939              -0.000108564               0.999999984              -0.000880320              -0.000108041               0.999999984              -0.000893370              -0.000106018               0.999999984              -0.000905687              -0.000101860               0.999999984              -0.000916830              -0.000094689               0.999999984              -0.000926217              -0.000083341               0.999999984              -0.000690826              -0.000258959               0.999999984              -0.000726473              -0.000211655               0.999999984              -0.000739136              -0.000191782               0.999999984              -0.000745628              -0.000185766               0.999999984              -0.000751447              -0.000186610               0.999999984              -0.000758393              -0.000190939               0.999999984              -0.000766569              -0.000196823               0.999999984              -0.000775838              -0.000203156               0.999999984              -0.000786013              -0.000209245               0.999999984              -0.000796753              -0.000214314               0.999999984              -0.000807671              -0.000217848               0.999999984              -0.000818387              -0.000219361               0.999999984              -0.000828610              -0.000218383               0.999999984              -0.000837846              -0.000214216               0.999999984              -0.000845657              -0.000205933               0.999999984              -0.000851703              -0.000192603               0.999999984              -0.000855704              -0.000172511               0.999999984              -0.000671754              -0.000385208               0.999999984              -0.000690284              -0.000315861               0.999999984              -0.000693421              -0.000288533               0.999999984              -0.000694633              -0.000281364               0.999999984              -0.000697439              -0.000283991               0.999999984              -0.000702278              -0.000291240               0.999999984              -0.000708689              -0.000300352               0.999999984              -0.000716224              -0.000309809               0.999999984              -0.000724220              -0.000318558               0.999999984              -0.000732114              -0.000325917               0.999999984              -0.000739441              -0.000331015               0.999999984              -0.000745826              -0.000333259               0.999999984              -0.000750780              -0.000331770               0.999999984              -0.000753912              -0.000325742               0.999999984              -0.000754972              -0.000314539               0.999999984              -0.000753751              -0.000297237               0.999999984              -0.000750502              -0.000272851               0.999999984              -0.000645638              -0.000507619               0.999999984              -0.000642119              -0.000418578               0.999999984              -0.000634563              -0.000386303               0.999999984              -0.000630634              -0.000379739               0.999999984              -0.000630855              -0.000385134               0.999999984              -0.000634074              -0.000395657               0.999999984              -0.000639010              -0.000408070               0.999999984              -0.000644628              -0.000420438               0.999999984              -0.000649977              -0.000431665               0.999999984              -0.000654318              -0.000440803               0.999999984              -0.000657126              -0.000447097               0.999999984              -0.000657903              -0.000449676               0.999999984              -0.000656174              -0.000447630               0.999999984              -0.000651698              -0.000440301               0.999999984              -0.000644582              -0.000427480               0.999999984              -0.000635189              -0.000409013               0.999999984              -0.000624207              -0.000384967               0.999999984              -0.000612755              -0.000625169               0.999999984              -0.000584357              -0.000519855               0.999999984              -0.000566985              -0.000485245               0.999999984              -0.000559455              -0.000480571               0.999999984              -0.000558440              -0.000489198               0.999999984              -0.000560907              -0.000503191               0.999999984              -0.000564646              -0.000518776               0.999999984              -0.000568176              -0.000533822               0.999999984              -0.000570414              -0.000546980               0.999999984              -0.000570599              -0.000557454               0.999999984              -0.000567993              -0.000564223               0.999999984              -0.000562075              -0.000566492               0.999999984              -0.000552697              -0.000563621               0.999999984              -0.000540093              -0.000555496               0.999999984              -0.000524829              -0.000542493               0.999999984              -0.000507626              -0.000525038               0.999999984              -0.000489349              -0.000504267               0.999999984              -0.000573744              -0.000736763               0.999999984              -0.000520154              -0.000619675               0.999999984              -0.000495395              -0.000584805               0.999999984              -0.000486555              -0.000582727               0.999999984              -0.000485887              -0.000594586               0.999999984              -0.000488261              -0.000611771               0.999999984              -0.000490867              -0.000630049               0.999999984              -0.000491975              -0.000647284               0.999999984              -0.000490493              -0.000661971               0.999999984              -0.000485642              -0.000673128               0.999999984              -0.000476704              -0.000679631               0.999999984              -0.000463457              -0.000681057               0.999999984              -0.000446253              -0.000677415               0.999999984              -0.000425712              -0.000669092               0.999999984              -0.000402735              -0.000656850               0.999999984              -0.000378134              -0.000641638               0.999999984              -0.000352553              -0.000624534               0.999999984              -0.000529633              -0.000841119               0.999999984              -0.000452648              -0.000717792               0.999999984              -0.000423915              -0.000684098               0.999999984              -0.000416381              -0.000684525               0.999999984              -0.000417110              -0.000699304               0.999999984              -0.000419727              -0.000719078               0.999999984              -0.000420973              -0.000739528               0.999999984              -0.000419179              -0.000758264               0.999999984              -0.000413234              -0.000773965               0.999999984              -0.000402423              -0.000785207               0.999999984              -0.000386304              -0.000791024               0.999999984              -0.000365136              -0.000791698               0.999999984              -0.000339672              -0.000787785               0.999999984              -0.000310908              -0.000780035               0.999999984              -0.000279825              -0.000769447               0.999999984              -0.000247125              -0.000756894               0.999999984              -0.000213497              -0.000743191               0.999999984              -0.000481796              -0.000936502               0.999999984              -0.000384156              -0.000814110               0.999999984              -0.000356248              -0.000781840               0.999999984              -0.000351598              -0.000784298               0.999999984              -0.000354345              -0.000801360               0.999999984              -0.000356991              -0.000823291               0.999999984              -0.000356455              -0.000845321               0.999999984              -0.000351117              -0.000865137               0.999999984              -0.000339842              -0.000881214               0.999999984              -0.000321934              -0.000892149               0.999999984              -0.000297481              -0.000897390               0.999999984              -0.000267309              -0.000897783               0.999999984              -0.000232654              -0.000894301               0.999999984              -0.000194837              -0.000888043               0.999999984              -0.000154821              -0.000879820               0.999999984              -0.000113574              -0.000870567               0.999999984              -0.000071828              -0.000860838               0.999999984              -0.000432439              -0.001026481               0.999999984              -0.000327356              -0.000920986               0.999999984              -0.000296270              -0.000884236               0.999999984              -0.000290236              -0.000880458               0.999999984              -0.000292689              -0.000892534               0.999999984              -0.000296033              -0.000911554               0.999999984              -0.000296875              -0.000932659               0.999999984              -0.000293565              -0.000953201               0.999999984              -0.000285258              -0.000971779               0.999999984              -0.000271112              -0.000987086               0.999999984              -0.000250607              -0.000998351               0.999999984              -0.000223867              -0.001005371               0.999999984              -0.000191874              -0.001008897               0.999999984              -0.000155781              -0.001009520               0.999999984              -0.000116467              -0.001008245               0.999999984              -0.000075003              -0.001005614               0.999999984              -0.000032637              -0.001002352               0.999999984              -0.000378497              -0.001108182               0.999999984              -0.000273481              -0.001024208               0.999999984              -0.000239367              -0.000989136               0.999999984              -0.000231042              -0.000981673               0.999999984              -0.000232298              -0.000989917               0.999999984              -0.000235566              -0.001006360               0.999999984              -0.000237307              -0.001026558               0.999999984              -0.000235563              -0.001047668               0.999999984              -0.000229624              -0.001068128               0.999999984              -0.000218617              -0.001086836               0.999999984              -0.000201791              -0.001102982               0.999999984              -0.000178934              -0.001115889               0.999999984              -0.000150233              -0.001125695               0.999999984              -0.000116519              -0.001132746               0.999999984              -0.000078556              -0.001137746               0.999999984              -0.000037323              -0.001141333               0.999999984               0.000005978              -0.001144249               0.999999984              -0.000321119              -0.001179695               0.999999984              -0.000222534              -0.001120593               0.999999984              -0.000187145              -0.001091703               0.999999984              -0.000176345              -0.001084029               0.999999984              -0.000175693              -0.001090288               0.999999984              -0.000178198              -0.001105137               0.999999984              -0.000180165              -0.001124693               0.999999984              -0.000179512              -0.001146454               0.999999984              -0.000175422              -0.001168685               0.999999984              -0.000166992              -0.001190409               0.999999984              -0.000153530              -0.001210718               0.999999984              -0.000134563              -0.001228812               0.999999984              -0.000109756              -0.001244387               0.999999984              -0.000079182              -0.001257561               0.999999984              -0.000043232              -0.001268604               0.999999984              -0.000002470              -0.001278098               0.999999984               0.000042231              -0.001286754               0.999999984              -0.000260716              -0.001239937               0.999999984              -0.000174452              -0.001206263               0.999999984              -0.000140336              -0.001186833               0.999999984              -0.000127993              -0.001182006               0.999999984              -0.000125368              -0.001188442               0.999999984              -0.000126577              -0.001202957               0.999999984              -0.000128231              -0.001222650               0.999999984              -0.000128133              -0.001245485               0.999999984              -0.000125274              -0.001269875               0.999999984              -0.000118917              -0.001294638               0.999999984              -0.000108569              -0.001318843               0.999999984              -0.000093335              -0.001341829               0.999999984              -0.000072774              -0.001363012               0.999999984              -0.000046265              -0.001382218               0.999999984              -0.000013366              -0.001399433               0.999999984               0.000025909              -0.001415036               0.999999984               0.000071595              -0.001429473               0.999999984              -0.000197814              -0.001287896               0.999999984              -0.000128806              -0.001277470               0.999999984              -0.000099121              -0.001268837               0.999999984              -0.000086950              -0.001268784               0.999999984              -0.000083082              -0.001277270               0.999999984              -0.000083038              -0.001292679               0.999999984              -0.000083970              -0.001313319               0.999999984              -0.000084009              -0.001337622               0.999999984              -0.000082088              -0.001364291               0.999999984              -0.000077513              -0.001392193               0.999999984              -0.000069827              -0.001420343               0.999999984              -0.000058485              -0.001448175               0.999999984              -0.000042503              -0.001474966               0.999999984              -0.000020931              -0.001500390               0.999999984               0.000007009              -0.001524125               0.999999984               0.000042329              -0.001546181               0.999999984               0.000086134              -0.001566777               0.999999984              -0.000132996              -0.001322753               0.999999984              -0.000084967              -0.001330901               0.999999984              -0.000062924              -0.001332233               0.999999984              -0.000053046              -0.001337368               0.999999984              -0.000049227              -0.001348621               0.999999984              -0.000048469              -0.001365729               0.999999984              -0.000048768              -0.001387705               0.999999984              -0.000048794              -0.001413585               0.999999984              -0.000047491              -0.001442384               0.999999984              -0.000044545              -0.001473148               0.999999984              -0.000039575              -0.001504883               0.999999984              -0.000032002              -0.001537050               0.999999984              -0.000021027              -0.001569206               0.999999984              -0.000005676              -0.001600646               0.999999984               0.000014941              -0.001630848               0.999999984               0.000042259              -0.001659487               0.999999984               0.000078239              -0.001686293               0.999999984              -0.000066839              -0.001343922               0.999999984              -0.000042231              -0.001364094               0.999999984              -0.000030454              -0.001372448               0.999999984              -0.000024925              -0.001381596               0.999999984              -0.000022521              -0.001395136               0.999999984              -0.000021862              -0.001413655               0.999999984              -0.000021906              -0.001436803               0.999999984              -0.000021876              -0.001463905               0.999999984              -0.000021189              -0.001494232               0.999999984              -0.000019782              -0.001527001               0.999999984              -0.000017379              -0.001561407               0.999999984              -0.000013569              -0.001596857               0.999999984              -0.000007942              -0.001632929               0.999999984               0.000000049              -0.001668995               0.999999984               0.000011142              -0.001704348               0.999999984               0.000026182              -0.001738390               0.999999984               0.000046832              -0.001770357               0.999999984               0.000000000              -0.001350965               0.999999984               0.000000000              -0.001375315               0.999999984              -0.000000000              -0.001386231               0.999999984              -0.000000000              -0.001396922               0.999999984              -0.000000000              -0.001411404               0.999999984               0.000000000              -0.001430464               0.999999984               0.000000000              -0.001454050               0.999999984               0.000000000              -0.001481604               0.999999984               0.000000000              -0.001512422               0.999999984               0.000000000              -0.001545871               0.999999984              -0.000000000              -0.001581312               0.999999984              -0.000000000              -0.001618097               0.999999984              -0.000000000              -0.001655759               0.999999984              -0.000000000              -0.001693687               0.999999984              -0.000000000              -0.001731131               0.999999984               0.000000000              -0.001767311               0.999999984               0.000000000              -0.001801277               0.999999984               0.000706166              -0.000000000               0.999999984               0.000756453               0.000000000               0.999999984               0.000778114               0.000000000               0.999999984               0.000789932              -0.000000000               0.999999984               0.000799102              -0.000000000               0.999999984               0.000808242               0.000000000               0.999999984               0.000818271              -0.000000000               0.999999984               0.000829544               0.000000000               0.999999984               0.000842001               0.000000000               0.999999984               0.000855488              -0.000000000               0.999999984               0.000869610              -0.000000000               0.999999984               0.000884015               0.000000000               0.999999984               0.000898412               0.000000000               0.999999984               0.000912623              -0.000000000               0.999999984               0.000926485               0.000000000               0.999999984               0.000939485              -0.000000000               0.999999984               0.000950902               0.000000000               0.999999984               0.000702404              -0.000130101               0.999999984               0.000748955              -0.000106189               0.999999984               0.000768218              -0.000095682               0.999999984               0.000778632              -0.000092287               0.999999984               0.000786917              -0.000092392               0.999999984               0.000795459              -0.000094334               0.999999984               0.000805025              -0.000097216               0.999999984               0.000815775              -0.000100411               0.999999984               0.000827629              -0.000103537               0.999999984               0.000840325              -0.000106132               0.999999984               0.000853522              -0.000107873               0.999999984               0.000866939              -0.000108564               0.999999984               0.000880320              -0.000108041               0.999999984               0.000893370              -0.000106018               0.999999984               0.000905687              -0.000101860               0.999999984               0.000916830              -0.000094689               0.999999984               0.000926217              -0.000083341               0.999999984               0.000690826              -0.000258959               0.999999984               0.000726473              -0.000211655               0.999999984               0.000739136              -0.000191782               0.999999984               0.000745628              -0.000185766               0.999999984               0.000751447              -0.000186610               0.999999984               0.000758393              -0.000190939               0.999999984               0.000766569              -0.000196823               0.999999984               0.000775838              -0.000203156               0.999999984               0.000786013              -0.000209245               0.999999984               0.000796753              -0.000214314               0.999999984               0.000807671              -0.000217848               0.999999984               0.000818387              -0.000219361               0.999999984               0.000828610              -0.000218383               0.999999984               0.000837846              -0.000214216               0.999999984               0.000845657              -0.000205933               0.999999984               0.000851703              -0.000192603               0.999999984               0.000855704              -0.000172511               0.999999984               0.000671754              -0.000385208               0.999999984               0.000690284              -0.000315861               0.999999984               0.000693421              -0.000288533               0.999999984               0.000694633              -0.000281364               0.999999984               0.000697439              -0.000283991               0.999999984               0.000702278              -0.000291240               0.999999984               0.000708689              -0.000300352               0.999999984               0.000716224              -0.000309809               0.999999984               0.000724220              -0.000318558               0.999999984               0.000732114              -0.000325917               0.999999984               0.000739441              -0.000331015               0.999999984               0.000745826              -0.000333259               0.999999984               0.000750780              -0.000331770               0.999999984               0.000753912              -0.000325742               0.999999984               0.000754972              -0.000314539               0.999999984               0.000753751              -0.000297237               0.999999984               0.000750502              -0.000272851               0.999999984               0.000645638              -0.000507619               0.999999984               0.000642119              -0.000418578               0.999999984               0.000634563              -0.000386303               0.999999984               0.000630634              -0.000379739               0.999999984               0.000630855              -0.000385134               0.999999984               0.000634074              -0.000395657               0.999999984               0.000639010              -0.000408070               0.999999984               0.000644628              -0.000420438               0.999999984               0.000649977              -0.000431665               0.999999984               0.000654318              -0.000440803               0.999999984               0.000657126              -0.000447097               0.999999984               0.000657903              -0.000449676               0.999999984               0.000656174              -0.000447630               0.999999984               0.000651698              -0.000440301               0.999999984               0.000644582              -0.000427480               0.999999984               0.000635189              -0.000409013               0.999999984               0.000624207              -0.000384967               0.999999984               0.000612755              -0.000625169               0.999999984               0.000584357              -0.000519855               0.999999984               0.000566985              -0.000485245               0.999999984               0.000559455              -0.000480571               0.999999984               0.000558440              -0.000489198               0.999999984               0.000560907              -0.000503191               0.999999984               0.000564646              -0.000518776               0.999999984               0.000568176              -0.000533822               0.999999984               0.000570414              -0.000546980               0.999999984               0.000570599              -0.000557454               0.999999984               0.000567993              -0.000564223               0.999999984               0.000562075              -0.000566492               0.999999984               0.000552697              -0.000563621               0.999999984               0.000540093              -0.000555496               0.999999984               0.000524829              -0.000542493               0.999999984               0.000507626              -0.000525038               0.999999984               0.000489349              -0.000504267               0.999999984               0.000573744              -0.000736763               0.999999984               0.000520154              -0.000619675               0.999999984               0.000495395              -0.000584805               0.999999984               0.000486555              -0.000582727               0.999999984               0.000485887              -0.000594586               0.999999984               0.000488261              -0.000611771               0.999999984               0.000490867              -0.000630049               0.999999984               0.000491975              -0.000647284               0.999999984               0.000490493              -0.000661971               0.999999984               0.000485642              -0.000673128               0.999999984               0.000476704              -0.000679631               0.999999984               0.000463457              -0.000681057               0.999999984               0.000446253              -0.000677415               0.999999984               0.000425712              -0.000669092               0.999999984               0.000402735              -0.000656850               0.999999984               0.000378134              -0.000641638               0.999999984               0.000352553              -0.000624534               0.999999984               0.000529633              -0.000841119               0.999999984               0.000452648              -0.000717792               0.999999984               0.000423915              -0.000684098               0.999999984               0.000416381              -0.000684525               0.999999984               0.000417110              -0.000699304               0.999999984               0.000419727              -0.000719078               0.999999984               0.000420973              -0.000739528               0.999999984               0.000419179              -0.000758264               0.999999984               0.000413234              -0.000773965               0.999999984               0.000402423              -0.000785207               0.999999984               0.000386304              -0.000791024               0.999999984               0.000365136              -0.000791698               0.999999984               0.000339672              -0.000787785               0.999999984               0.000310908              -0.000780035               0.999999984               0.000279825              -0.000769447               0.999999984               0.000247125              -0.000756894               0.999999984               0.000213497              -0.000743191               0.999999984               0.000481796              -0.000936502               0.999999984               0.000384156              -0.000814110               0.999999984               0.000356248              -0.000781840               0.999999984               0.000351598              -0.000784298               0.999999984               0.000354345              -0.000801360               0.999999984               0.000356991              -0.000823291               0.999999984               0.000356455              -0.000845321               0.999999984               0.000351117              -0.000865137               0.999999984               0.000339842              -0.000881214               0.999999984               0.000321934              -0.000892149               0.999999984               0.000297481              -0.000897390               0.999999984               0.000267309              -0.000897783               0.999999984               0.000232654              -0.000894301               0.999999984               0.000194837              -0.000888043               0.999999984               0.000154821              -0.000879820               0.999999984               0.000113574              -0.000870567               0.999999984               0.000071828              -0.000860838               0.999999984               0.000432439              -0.001026481               0.999999984               0.000327356              -0.000920986               0.999999984               0.000296270              -0.000884236               0.999999984               0.000290236              -0.000880458               0.999999984               0.000292689              -0.000892534               0.999999984               0.000296033              -0.000911554               0.999999984               0.000296875              -0.000932659               0.999999984               0.000293565              -0.000953201               0.999999984               0.000285258              -0.000971779               0.999999984               0.000271112              -0.000987086               0.999999984               0.000250607              -0.000998351               0.999999984               0.000223867              -0.001005371               0.999999984               0.000191874              -0.001008897               0.999999984               0.000155781              -0.001009520               0.999999984               0.000116467              -0.001008245               0.999999984               0.000075003              -0.001005614               0.999999984               0.000032637              -0.001002352               0.999999984               0.000378497              -0.001108182               0.999999984               0.000273481              -0.001024208               0.999999984               0.000239367              -0.000989136               0.999999984               0.000231042              -0.000981673               0.999999984               0.000232298              -0.000989917               0.999999984               0.000235566              -0.001006360               0.999999984               0.000237307              -0.001026558               0.999999984               0.000235563              -0.001047668               0.999999984               0.000229624              -0.001068128               0.999999984               0.000218617              -0.001086836               0.999999984               0.000201791              -0.001102982               0.999999984               0.000178934              -0.001115889               0.999999984               0.000150233              -0.001125695               0.999999984               0.000116519              -0.001132746               0.999999984               0.000078556              -0.001137746               0.999999984               0.000037323              -0.001141333               0.999999984              -0.000005978              -0.001144249               0.999999984               0.000321119              -0.001179695               0.999999984               0.000222534              -0.001120593               0.999999984               0.000187145              -0.001091703               0.999999984               0.000176345              -0.001084029               0.999999984               0.000175693              -0.001090288               0.999999984               0.000178198              -0.001105137               0.999999984               0.000180165              -0.001124693               0.999999984               0.000179512              -0.001146454               0.999999984               0.000175422              -0.001168685               0.999999984               0.000166992              -0.001190409               0.999999984               0.000153530              -0.001210718               0.999999984               0.000134563              -0.001228812               0.999999984               0.000109756              -0.001244387               0.999999984               0.000079182              -0.001257561               0.999999984               0.000043232              -0.001268604               0.999999984               0.000002470              -0.001278098               0.999999984              -0.000042231              -0.001286754               0.999999984               0.000260716              -0.001239937               0.999999984               0.000174452              -0.001206263               0.999999984               0.000140336              -0.001186833               0.999999984               0.000127993              -0.001182006               0.999999984               0.000125368              -0.001188442               0.999999984               0.000126577              -0.001202957               0.999999984               0.000128231              -0.001222650               0.999999984               0.000128133              -0.001245485               0.999999984               0.000125274              -0.001269875               0.999999984               0.000118917              -0.001294638               0.999999984               0.000108569              -0.001318843               0.999999984               0.000093335              -0.001341829               0.999999984               0.000072774              -0.001363012               0.999999984               0.000046265              -0.001382218               0.999999984               0.000013366              -0.001399433               0.999999984              -0.000025909              -0.001415036               0.999999984              -0.000071595              -0.001429473               0.999999984               0.000197814              -0.001287896               0.999999984               0.000128806              -0.001277470               0.999999984               0.000099121              -0.001268837               0.999999984               0.000086950              -0.001268784               0.999999984               0.000083082              -0.001277270               0.999999984               0.000083038              -0.001292679               0.999999984               0.000083970              -0.001313319               0.999999984               0.000084009              -0.001337622               0.999999984               0.000082088              -0.001364291               0.999999984               0.000077513              -0.001392193               0.999999984               0.000069827              -0.001420343               0.999999984               0.000058485              -0.001448175               0.999999984               0.000042503              -0.001474966               0.999999984               0.000020931              -0.001500390               0.999999984              -0.000007009              -0.001524125               0.999999984              -0.000042329              -0.001546181               0.999999984              -0.000086134              -0.001566777               0.999999984               0.000132996              -0.001322753               0.999999984               0.000084967              -0.001330901               0.999999984               0.000062924              -0.001332233               0.999999984               0.000053046              -0.001337368               0.999999984               0.000049227              -0.001348621               0.999999984               0.000048469              -0.001365729               0.999999984               0.000048768              -0.001387705               0.999999984               0.000048794              -0.001413585               0.999999984               0.000047491              -0.001442384               0.999999984               0.000044545              -0.001473148               0.999999984               0.000039575              -0.001504883               0.999999984               0.000032002              -0.001537050               0.999999984               0.000021027              -0.001569206               0.999999984               0.000005676              -0.001600646               0.999999984              -0.000014941              -0.001630848               0.999999984              -0.000042259              -0.001659487               0.999999984              -0.000078239              -0.001686293               0.999999984               0.000066839              -0.001343922               0.999999984               0.000042231              -0.001364094               0.999999984               0.000030454              -0.001372448               0.999999984               0.000024925              -0.001381596               0.999999984               0.000022521              -0.001395136               0.999999984               0.000021862              -0.001413655               0.999999984               0.000021906              -0.001436803               0.999999984               0.000021876              -0.001463905               0.999999984               0.000021189              -0.001494232               0.999999984               0.000019782              -0.001527001               0.999999984               0.000017379              -0.001561407               0.999999984               0.000013569              -0.001596857               0.999999984               0.000007942              -0.001632929               0.999999984              -0.000000049              -0.001668995               0.999999984              -0.000011142              -0.001704348               0.999999984              -0.000026182              -0.001738390               0.999999984              -0.000046832              -0.001770357               0.999999984               0.000000000              -0.001350965               0.999999984               0.000000000              -0.001375315               0.999999984              -0.000000000              -0.001386231               0.999999984              -0.000000000              -0.001396922               0.999999984              -0.000000000              -0.001411404               0.999999984               0.000000000              -0.001430464               0.999999984               0.000000000              -0.001454050               0.999999984               0.000000000              -0.001481604               0.999999984               0.000000000              -0.001512422               0.999999984               0.000000000              -0.001545871               0.999999984              -0.000000000              -0.001581312               0.999999984              -0.000000000              -0.001618097               0.999999984              -0.000000000              -0.001655759               0.999999984              -0.000000000              -0.001693687               0.999999984              -0.000000000              -0.001731131               0.999999984               0.000000000              -0.001767311               0.999999984               0.000000000              -0.001801277               0.999999984               0.000706166              -0.000000000               0.999999984               0.000756453               0.000000000               0.999999984               0.000778114               0.000000000               0.999999984               0.000789932              -0.000000000               0.999999984               0.000799102              -0.000000000               0.999999984               0.000808242               0.000000000               0.999999984               0.000818271              -0.000000000               0.999999984               0.000829544               0.000000000               0.999999984               0.000842001               0.000000000               0.999999984               0.000855488              -0.000000000               0.999999984               0.000869610              -0.000000000               0.999999984               0.000884015               0.000000000               0.999999984               0.000898412               0.000000000               0.999999984               0.000912623              -0.000000000               0.999999984               0.000926485               0.000000000               0.999999984               0.000939485              -0.000000000               0.999999984               0.000950902               0.000000000               0.999999984               0.000702404               0.000130101               0.999999984               0.000748955               0.000106189               0.999999984               0.000768218               0.000095682               0.999999984               0.000778632               0.000092287               0.999999984               0.000786917               0.000092392               0.999999984               0.000795459               0.000094334               0.999999984               0.000805025               0.000097216               0.999999984               0.000815775               0.000100411               0.999999984               0.000827629               0.000103537               0.999999984               0.000840325               0.000106132               0.999999984               0.000853522               0.000107873               0.999999984               0.000866939               0.000108564               0.999999984               0.000880320               0.000108041               0.999999984               0.000893370               0.000106018               0.999999984               0.000905687               0.000101860               0.999999984               0.000916830               0.000094689               0.999999984               0.000926217               0.000083341               0.999999984               0.000690826               0.000258959               0.999999984               0.000726473               0.000211655               0.999999984               0.000739136               0.000191782               0.999999984               0.000745628               0.000185766               0.999999984               0.000751447               0.000186610               0.999999984               0.000758393               0.000190939               0.999999984               0.000766569               0.000196823               0.999999984               0.000775838               0.000203156               0.999999984               0.000786013               0.000209245               0.999999984               0.000796753               0.000214314               0.999999984               0.000807671               0.000217848               0.999999984               0.000818387               0.000219361               0.999999984               0.000828610               0.000218383               0.999999984               0.000837846               0.000214216               0.999999984               0.000845657               0.000205933               0.999999984               0.000851703               0.000192603               0.999999984               0.000855704               0.000172511               0.999999984               0.000671754               0.000385208               0.999999984               0.000690284               0.000315861               0.999999984               0.000693421               0.000288533               0.999999984               0.000694633               0.000281364               0.999999984               0.000697439               0.000283991               0.999999984               0.000702278               0.000291240               0.999999984               0.000708689               0.000300352               0.999999984               0.000716224               0.000309809               0.999999984               0.000724220               0.000318558               0.999999984               0.000732114               0.000325917               0.999999984               0.000739441               0.000331015               0.999999984               0.000745826               0.000333259               0.999999984               0.000750780               0.000331770               0.999999984               0.000753912               0.000325742               0.999999984               0.000754972               0.000314539               0.999999984               0.000753751               0.000297237               0.999999984               0.000750502               0.000272851               0.999999984               0.000645638               0.000507619               0.999999984               0.000642119               0.000418578               0.999999984               0.000634563               0.000386303               0.999999984               0.000630634               0.000379739               0.999999984               0.000630855               0.000385134               0.999999984               0.000634074               0.000395657               0.999999984               0.000639010               0.000408070               0.999999984               0.000644628               0.000420438               0.999999984               0.000649977               0.000431665               0.999999984               0.000654318               0.000440803               0.999999984               0.000657126               0.000447097               0.999999984               0.000657903               0.000449676               0.999999984               0.000656174               0.000447630               0.999999984               0.000651698               0.000440301               0.999999984               0.000644582               0.000427480               0.999999984               0.000635189               0.000409013               0.999999984               0.000624207               0.000384967               0.999999984               0.000612755               0.000625169               0.999999984               0.000584357               0.000519855               0.999999984               0.000566985               0.000485245               0.999999984               0.000559455               0.000480571               0.999999984               0.000558440               0.000489198               0.999999984               0.000560907               0.000503191               0.999999984               0.000564646               0.000518776               0.999999984               0.000568176               0.000533822               0.999999984               0.000570414               0.000546980               0.999999984               0.000570599               0.000557454               0.999999984               0.000567993               0.000564223               0.999999984               0.000562075               0.000566492               0.999999984               0.000552697               0.000563621               0.999999984               0.000540093               0.000555496               0.999999984               0.000524829               0.000542493               0.999999984               0.000507626               0.000525038               0.999999984               0.000489349               0.000504267               0.999999984               0.000573744               0.000736763               0.999999984               0.000520154               0.000619675               0.999999984               0.000495395               0.000584805               0.999999984               0.000486555               0.000582727               0.999999984               0.000485887               0.000594586               0.999999984               0.000488261               0.000611771               0.999999984               0.000490867               0.000630049               0.999999984               0.000491975               0.000647284               0.999999984               0.000490493               0.000661971               0.999999984               0.000485642               0.000673128               0.999999984               0.000476704               0.000679631               0.999999984               0.000463457               0.000681057               0.999999984               0.000446253               0.000677415               0.999999984               0.000425712               0.000669092               0.999999984               0.000402735               0.000656850               0.999999984               0.000378134               0.000641638               0.999999984               0.000352553               0.000624534               0.999999984               0.000529633               0.000841119               0.999999984               0.000452648               0.000717792               0.999999984               0.000423915               0.000684098               0.999999984               0.000416381               0.000684525               0.999999984               0.000417110               0.000699304               0.999999984               0.000419727               0.000719078               0.999999984               0.000420973               0.000739528               0.999999984               0.000419179               0.000758264               0.999999984               0.000413234               0.000773965               0.999999984               0.000402423               0.000785207               0.999999984               0.000386304               0.000791024               0.999999984               0.000365136               0.000791698               0.999999984               0.000339672               0.000787785               0.999999984               0.000310908               0.000780035               0.999999984               0.000279825               0.000769447               0.999999984               0.000247125               0.000756894               0.999999984               0.000213497               0.000743191               0.999999984               0.000481796               0.000936502               0.999999984               0.000384156               0.000814110               0.999999984               0.000356248               0.000781840               0.999999984               0.000351598               0.000784298               0.999999984               0.000354345               0.000801360               0.999999984               0.000356991               0.000823291               0.999999984               0.000356455               0.000845321               0.999999984               0.000351117               0.000865137               0.999999984               0.000339842               0.000881214               0.999999984               0.000321934               0.000892149               0.999999984               0.000297481               0.000897390               0.999999984               0.000267309               0.000897783               0.999999984               0.000232654               0.000894301               0.999999984               0.000194837               0.000888043               0.999999984               0.000154821               0.000879820               0.999999984               0.000113574               0.000870567               0.999999984               0.000071828               0.000860838               0.999999984               0.000432439               0.001026481               0.999999984               0.000327356               0.000920986               0.999999984               0.000296270               0.000884236               0.999999984               0.000290236               0.000880458               0.999999984               0.000292689               0.000892534               0.999999984               0.000296033               0.000911554               0.999999984               0.000296875               0.000932659               0.999999984               0.000293565               0.000953201               0.999999984               0.000285258               0.000971779               0.999999984               0.000271112               0.000987086               0.999999984               0.000250607               0.000998351               0.999999984               0.000223867               0.001005371               0.999999984               0.000191874               0.001008897               0.999999984               0.000155781               0.001009520               0.999999984               0.000116467               0.001008245               0.999999984               0.000075003               0.001005614               0.999999984               0.000032637               0.001002352               0.999999984               0.000378497               0.001108182               0.999999984               0.000273481               0.001024208               0.999999984               0.000239367               0.000989136               0.999999984               0.000231042               0.000981673               0.999999984               0.000232298               0.000989917               0.999999984               0.000235566               0.001006360               0.999999984               0.000237307               0.001026558               0.999999984               0.000235563               0.001047668               0.999999984               0.000229624               0.001068128               0.999999984               0.000218617               0.001086836               0.999999984               0.000201791               0.001102982               0.999999984               0.000178934               0.001115889               0.999999984               0.000150233               0.001125695               0.999999984               0.000116519               0.001132746               0.999999984               0.000078556               0.001137746               0.999999984               0.000037323               0.001141333               0.999999984              -0.000005978               0.001144249               0.999999984               0.000321119               0.001179695               0.999999984               0.000222534               0.001120593               0.999999984               0.000187145               0.001091703               0.999999984               0.000176345               0.001084029               0.999999984               0.000175693               0.001090288               0.999999984               0.000178198               0.001105137               0.999999984               0.000180165               0.001124693               0.999999984               0.000179512               0.001146454               0.999999984               0.000175422               0.001168685               0.999999984               0.000166992               0.001190409               0.999999984               0.000153530               0.001210718               0.999999984               0.000134563               0.001228812               0.999999984               0.000109756               0.001244387               0.999999984               0.000079182               0.001257561               0.999999984               0.000043232               0.001268604               0.999999984               0.000002470               0.001278098               0.999999984              -0.000042231               0.001286754               0.999999984               0.000260716               0.001239937               0.999999984               0.000174452               0.001206263               0.999999984               0.000140336               0.001186833               0.999999984               0.000127993               0.001182006               0.999999984               0.000125368               0.001188442               0.999999984               0.000126577               0.001202957               0.999999984               0.000128231               0.001222650               0.999999984               0.000128133               0.001245485               0.999999984               0.000125274               0.001269875               0.999999984               0.000118917               0.001294638               0.999999984               0.000108569               0.001318843               0.999999984               0.000093335               0.001341829               0.999999984               0.000072774               0.001363012               0.999999984               0.000046265               0.001382218               0.999999984               0.000013366               0.001399433               0.999999984              -0.000025909               0.001415036               0.999999984              -0.000071595               0.001429473               0.999999984               0.000197814               0.001287896               0.999999984               0.000128806               0.001277470               0.999999984               0.000099121               0.001268837               0.999999984               0.000086950               0.001268784               0.999999984               0.000083082               0.001277270               0.999999984               0.000083038               0.001292679               0.999999984               0.000083970               0.001313319               0.999999984               0.000084009               0.001337622               0.999999984               0.000082088               0.001364291               0.999999984               0.000077513               0.001392193               0.999999984               0.000069827               0.001420343               0.999999984               0.000058485               0.001448175               0.999999984               0.000042503               0.001474966               0.999999984               0.000020931               0.001500390               0.999999984              -0.000007009               0.001524125               0.999999984              -0.000042329               0.001546181               0.999999984              -0.000086134               0.001566777               0.999999984               0.000132996               0.001322753               0.999999984               0.000084967               0.001330901               0.999999984               0.000062924               0.001332233               0.999999984               0.000053046               0.001337368               0.999999984               0.000049227               0.001348621               0.999999984               0.000048469               0.001365729               0.999999984               0.000048768               0.001387705               0.999999984               0.000048794               0.001413585               0.999999984               0.000047491               0.001442384               0.999999984               0.000044545               0.001473148               0.999999984               0.000039575               0.001504883               0.999999984               0.000032002               0.001537050               0.999999984               0.000021027               0.001569206               0.999999984               0.000005676               0.001600646               0.999999984              -0.000014941               0.001630848               0.999999984              -0.000042259               0.001659487               0.999999984              -0.000078239               0.001686293               0.999999984               0.000066839               0.001343922               0.999999984               0.000042231               0.001364094               0.999999984               0.000030454               0.001372448               0.999999984               0.000024925               0.001381596               0.999999984               0.000022521               0.001395136               0.999999984               0.000021862               0.001413655               0.999999984               0.000021906               0.001436803               0.999999984               0.000021876               0.001463905               0.999999984               0.000021189               0.001494232               0.999999984               0.000019782               0.001527001               0.999999984               0.000017379               0.001561407               0.999999984               0.000013569               0.001596857               0.999999984               0.000007942               0.001632929               0.999999984              -0.000000049               0.001668995               0.999999984              -0.000011142               0.001704348               0.999999984              -0.000026182               0.001738390               0.999999984              -0.000046832               0.001770357               0.999999984               0.000000000               0.001350965               0.999999984              -0.000000000               0.001375315               0.999999984              -0.000000000               0.001386231               0.999999984              -0.000000000               0.001396922               0.999999984               0.000000000               0.001411404               0.999999984               0.000000000               0.001430464               0.999999984              -0.000000000               0.001454050               0.999999984               0.000000000               0.001481604               0.999999984              -0.000000000               0.001512422               0.999999984              -0.000000000               0.001545871               0.999999984               0.000000000               0.001581312               0.999999984              -0.000000000               0.001618097               0.999999984              -0.000000000               0.001655759               0.999999984              -0.000000000               0.001693687               0.999999984              -0.000000000               0.001731131               0.999999984              -0.000000000               0.001767311               0.999999984               0.000000000               0.001801277               0.999999984 </DataArray>
<DataArray type="Float64"                                    Name="stress"                                                      NumberOfComponents="10" format="ascii">
              0.002203998               0.023799982               0.000000000              -0.002148493               0.008649412               0.006500919               0.000000000               0.000000000               0.000000000               0.000000000               0.002198010               0.018605371              -0.000000000              -0.001501414               0.006702199               0.005200786               0.000000000               0.000000000               0.000000000               0.000000000               0.002893249               0.014379396               0.000000000              -0.000712454               0.005030569               0.004318115               0.000000000               0.000000000               0.000000000               0.000000000               0.002777086               0.012012908              -0.000000000              -0.000460205               0.004157664               0.003697459               0.000000000               0.000000000               0.000000000               0.000000000               0.002418563               0.010530015              -0.000000000              -0.000409290               0.003646400               0.003237110               0.000000000               0.000000000               0.000000000               0.000000000               0.002023079               0.009512938               0.000000000              -0.000430462               0.003314435               0.002883973               0.000000000               0.000000000               0.000000000               0.000000000               0.001649340               0.008758814              -0.000000000              -0.000476348               0.003078358               0.002602010               0.000000000               0.000000000               0.000000000               0.000000000               0.001313045               0.008156259              -0.000000000              -0.000527139               0.002894439               0.002367300               0.000000000               0.000000000               0.000000000               0.000000000               0.001020669               0.007642578              -0.000000000              -0.000572570               0.002738357               0.002165787               0.000000000               0.000000000               0.000000000               0.000000000               0.000775882               0.007174477               0.000000000              -0.000605852               0.002593419               0.001987567               0.000000000               0.000000000               0.000000000               0.000000000               0.000577879               0.006725763               0.000000000              -0.000624014               0.002449903               0.001825889               0.000000000               0.000000000               0.000000000               0.000000000               0.000415808               0.006280110               0.000000000              -0.000629084               0.002303044               0.001673960               0.000000000               0.000000000               0.000000000               0.000000000               0.000279305               0.005825667              -0.000000000              -0.000623467               0.002149692               0.001526225               0.000000000               0.000000000               0.000000000               0.000000000               0.000160982               0.005346722              -0.000000000              -0.000607970               0.001984880               0.001376909               0.000000000               0.000000000               0.000000000               0.000000000               0.000069469               0.004822000               0.000000000              -0.000576698               0.001799550               0.001222852               0.000000000               0.000000000               0.000000000               0.000000000               0.000021341               0.004225869              -0.000000000              -0.000520229               0.001582019               0.001061789               0.000000000               0.000000000               0.000000000               0.000000000              -0.000039264               0.003766418              -0.000000000              -0.000485525               0.001417302               0.000931777               0.000000000               0.000000000               0.000000000               0.000000000               0.002282150               0.023309517              -0.001627470              -0.002057879               0.008455721               0.006397842               0.000000000               0.000000000               0.000000000               0.000000000               0.002153637               0.018280966              -0.000814732              -0.001477503               0.006586095               0.005108592               0.000000000               0.000000000               0.000000000               0.000000000               0.002714965               0.014232951              -0.000001897              -0.000761005               0.004997938               0.004236933               0.000000000               0.000000000               0.000000000               0.000000000               0.002542716               0.011952460               0.000339417              -0.000540538               0.004164293               0.003623755               0.000000000               0.000000000               0.000000000               0.000000000               0.002170564               0.010515039               0.000472430              -0.000500417               0.003671784               0.003171366               0.000000000               0.000000000               0.000000000               0.000000000               0.001781855               0.009521697               0.000515207              -0.000522015               0.003347872               0.002825857               0.000000000               0.000000000               0.000000000               0.000000000               0.001426924               0.008775466               0.000518503              -0.000561835               0.003112404               0.002550569               0.000000000               0.000000000               0.000000000               0.000000000               0.001112669               0.008172322               0.000505462              -0.000604288               0.002925509               0.002321221               0.000000000               0.000000000               0.000000000               0.000000000               0.000843130               0.007655264               0.000482352              -0.000640733               0.002765307               0.002124574               0.000000000               0.000000000               0.000000000               0.000000000               0.000621118               0.007186082               0.000451987              -0.000665339               0.002617116               0.001951777               0.000000000               0.000000000               0.000000000               0.000000000               0.000441831               0.006740111               0.000418439              -0.000676826               0.002472290               0.001795464               0.000000000               0.000000000               0.000000000               0.000000000               0.000294298               0.006298331               0.000383410              -0.000676928               0.002325065               0.001648137               0.000000000               0.000000000               0.000000000               0.000000000               0.000174224               0.005847019               0.000344675              -0.000665542               0.002170834               0.001505292               0.000000000               0.000000000               0.000000000               0.000000000               0.000082424               0.005372236               0.000295717              -0.000640619               0.002004267               0.001363648               0.000000000               0.000000000               0.000000000               0.000000000               0.000021514               0.004859409               0.000228384              -0.000599357               0.001819572               0.001220215               0.000000000               0.000000000               0.000000000               0.000000000              -0.000001210               0.004295000               0.000130096              -0.000537328               0.001610762               0.001073434               0.000000000               0.000000000               0.000000000               0.000000000              -0.000047767               0.003870627               0.000081885              -0.000501740               0.001457443               0.000955703               0.000000000               0.000000000               0.000000000               0.000000000               0.002467057               0.021894006              -0.003018828              -0.001811601               0.007901796               0.006090194               0.000000000               0.000000000               0.000000000               0.000000000               0.002001115               0.017354642              -0.001507600              -0.001418909               0.006257793               0.004838883               0.000000000               0.000000000               0.000000000               0.000000000               0.002199655               0.013812899              -0.000012412              -0.000901740               0.004904834               0.004003094               0.000000000               0.000000000               0.000000000               0.000000000               0.001892838               0.011780665               0.000597650              -0.000762767               0.004181105               0.003418338               0.000000000               0.000000000               0.000000000               0.000000000               0.001494790               0.010469306               0.000829019              -0.000748115               0.003739106               0.002990990               0.000000000               0.000000000               0.000000000               0.000000000               0.001132405               0.009535859               0.000898723              -0.000767329               0.003434364               0.002667035               0.000000000               0.000000000               0.000000000               0.000000000               0.000832309               0.008812786               0.000898563              -0.000789481               0.003200726               0.002411245               0.000000000               0.000000000               0.000000000               0.000000000               0.000580948               0.008212342               0.000869202              -0.000808685               0.003006982               0.002198296               0.000000000               0.000000000               0.000000000               0.000000000               0.000373546               0.007687201               0.000825574              -0.000820819               0.002835981               0.002015162               0.000000000               0.000000000               0.000000000               0.000000000               0.000211320               0.007214076               0.000772263              -0.000822513               0.002678839               0.001856326               0.000000000               0.000000000               0.000000000               0.000000000               0.000088655               0.006770375               0.000713872              -0.000813050               0.002527786               0.001714736               0.000000000               0.000000000               0.000000000               0.000000000              -0.000002961               0.006337308               0.000650679              -0.000793272               0.002376839               0.001583567               0.000000000               0.000000000               0.000000000               0.000000000              -0.000063288               0.005898589               0.000578984              -0.000761055               0.002219861               0.001458807               0.000000000               0.000000000               0.000000000               0.000000000              -0.000088441               0.005447142               0.000490202              -0.000714056               0.002053715               0.001339658               0.000000000               0.000000000               0.000000000               0.000000000              -0.000081542               0.004984303               0.000374750              -0.000653614               0.001879289               0.001225675               0.000000000               0.000000000               0.000000000               0.000000000              -0.000047982               0.004512427               0.000213096              -0.000582045               0.001698142               0.001116097               0.000000000               0.000000000               0.000000000               0.000000000              -0.000061605               0.004182271               0.000132154              -0.000545884               0.001576038               0.001030154               0.000000000               0.000000000               0.000000000               0.000000000               0.002648471               0.019738561              -0.004010985              -0.001474142               0.007070835               0.005596693               0.000000000               0.000000000               0.000000000               0.000000000               0.001711028               0.015970099              -0.002008621              -0.001354624               0.005774854               0.004420230               0.000000000               0.000000000               0.000000000               0.000000000               0.001408616               0.013194672              -0.000056213              -0.001121100               0.004771880               0.003650780               0.000000000               0.000000000               0.000000000               0.000000000               0.000949379               0.011527917               0.000701559              -0.001084970               0.004204257               0.003119287               0.000000000               0.000000000               0.000000000               0.000000000               0.000552479               0.010390780               0.000973035              -0.001091665               0.003827447               0.002735782               0.000000000               0.000000000               0.000000000               0.000000000               0.000253169               0.009531930               0.001044901              -0.001096551               0.003542795               0.002446245               0.000000000               0.000000000               0.000000000               0.000000000               0.000035369               0.008836789               0.001034330              -0.001091333               0.003309344               0.002218012               0.000000000               0.000000000               0.000000000               0.000000000              -0.000120907               0.008242740               0.000991573              -0.001075680               0.003106113               0.002030432               0.000000000               0.000000000               0.000000000               0.000000000              -0.000224015               0.007717625               0.000938486              -0.001048706               0.002922085               0.001873378               0.000000000               0.000000000               0.000000000               0.000000000              -0.000286881               0.007240966               0.000878637              -0.001012699               0.002751197               0.001738499               0.000000000               0.000000000               0.000000000               0.000000000              -0.000318597               0.006796548               0.000811641              -0.000969040               0.002588507               0.001619466               0.000000000               0.000000000               0.000000000               0.000000000              -0.000319690               0.006370820               0.000734826              -0.000916234               0.002428997               0.001512762               0.000000000               0.000000000               0.000000000               0.000000000              -0.000290673               0.005953808               0.000643356              -0.000853226               0.002268992               0.001415765               0.000000000               0.000000000               0.000000000               0.000000000              -0.000238233               0.005546751               0.000535294              -0.000782679               0.002109791               0.001327112               0.000000000               0.000000000               0.000000000               0.000000000              -0.000163913               0.005164306               0.000400417              -0.000707004               0.001957086               0.001250082               0.000000000               0.000000000               0.000000000               0.000000000              -0.000081351               0.004821160               0.000221720              -0.000633150               0.001818087               0.001184937               0.000000000               0.000000000               0.000000000               0.000000000              -0.000064147               0.004611357               0.000131959              -0.000600473               0.001737262               0.001136788               0.000000000               0.000000000               0.000000000               0.000000000               0.002694206               0.017121371              -0.004509898              -0.001129845               0.006083681               0.004953836               0.000000000               0.000000000               0.000000000               0.000000000               0.001262635               0.014326018              -0.002289454              -0.001317262               0.005214379               0.003897116               0.000000000               0.000000000               0.000000000               0.000000000               0.000437777               0.012471604              -0.000160329              -0.001394781               0.004622087               0.003227306               0.000000000               0.000000000               0.000000000               0.000000000              -0.000124511               0.011206091               0.000615867              -0.001447449               0.004217809               0.002770360               0.000000000               0.000000000               0.000000000               0.000000000              -0.000468914               0.010244692               0.000875356              -0.001456426               0.003900338               0.002443912               0.000000000               0.000000000               0.000000000               0.000000000              -0.000659862               0.009464844               0.000934221              -0.001430550               0.003631767               0.002201216               0.000000000               0.000000000               0.000000000               0.000000000              -0.000754932               0.008803996               0.000919392              -0.001383596               0.003395834               0.002012239               0.000000000               0.000000000               0.000000000               0.000000000              -0.000787001               0.008223123               0.000880352              -0.001323013               0.003182018               0.001859005               0.000000000               0.000000000               0.000000000               0.000000000              -0.000769751               0.007700986               0.000834582              -0.001251277               0.002984062               0.001732785               0.000000000               0.000000000               0.000000000               0.000000000              -0.000718238               0.007222174               0.000782800              -0.001172108               0.002798070               0.001625962               0.000000000               0.000000000               0.000000000               0.000000000              -0.000641892               0.006774706               0.000722816              -0.001087545               0.002620728               0.001533183               0.000000000               0.000000000               0.000000000               0.000000000              -0.000542071               0.006352234               0.000649315              -0.000997303               0.002449825               0.001452521               0.000000000               0.000000000               0.000000000               0.000000000              -0.000422507               0.005958935               0.000557846              -0.000903305               0.002287393               0.001384088               0.000000000               0.000000000               0.000000000               0.000000000              -0.000297885               0.005604888               0.000450701              -0.000812316               0.002139049               0.001326733               0.000000000               0.000000000               0.000000000               0.000000000              -0.000180030               0.005305176               0.000323978              -0.000730656               0.002011926               0.001281270               0.000000000               0.000000000               0.000000000               0.000000000              -0.000082261               0.005079029               0.000171467              -0.000665725               0.001914901               0.001249176               0.000000000               0.000000000               0.000000000               0.000000000              -0.000050591               0.004969972               0.000095231              -0.000640217               0.001870046               0.001229830               0.000000000               0.000000000               0.000000000               0.000000000               0.002473106               0.014309074              -0.004530292              -0.000861222               0.005056716               0.004195495               0.000000000               0.000000000               0.000000000               0.000000000               0.000655536               0.012595071              -0.002387492              -0.001328556               0.004641167               0.003312611               0.000000000               0.000000000               0.000000000               0.000000000              -0.000598344               0.011687697              -0.000358208              -0.001685337               0.004457639               0.002772302               0.000000000               0.000000000               0.000000000               0.000000000              -0.001169593               0.010793748               0.000339276              -0.001787811               0.004193817               0.002406006               0.000000000               0.000000000               0.000000000               0.000000000              -0.001393744               0.009990122               0.000567193              -0.001771415               0.003920479               0.002149064               0.000000000               0.000000000               0.000000000               0.000000000              -0.001434170               0.009285651               0.000624989              -0.001698516               0.003661358               0.001962842               0.000000000               0.000000000               0.000000000               0.000000000              -0.001383282               0.008660059               0.000626268              -0.001601234               0.003420402               0.001819168               0.000000000               0.000000000               0.000000000               0.000000000              -0.001282944               0.008097637               0.000608154              -0.001493305               0.003196954               0.001703649               0.000000000               0.000000000               0.000000000               0.000000000              -0.001151540               0.007582281               0.000584607              -0.001379609               0.002987271               0.001607662               0.000000000               0.000000000               0.000000000               0.000000000              -0.000992773               0.007104856               0.000553523              -0.001260394               0.002788393               0.001527999               0.000000000               0.000000000               0.000000000               0.000000000              -0.000813086               0.006655212               0.000511632              -0.001136806               0.002597317               0.001460511               0.000000000               0.000000000               0.000000000               0.000000000              -0.000625644               0.006239382               0.000455208              -0.001014537               0.002417952               0.001403415               0.000000000               0.000000000               0.000000000               0.000000000              -0.000442877               0.005873172               0.000380755              -0.000900223               0.002257779               0.001357556               0.000000000               0.000000000               0.000000000               0.000000000              -0.000280822               0.005569845               0.000293344              -0.000801537               0.002123775               0.001322238               0.000000000               0.000000000               0.000000000               0.000000000              -0.000150920               0.005338561               0.000194643              -0.000723913               0.002020807               0.001296894               0.000000000               0.000000000               0.000000000               0.000000000              -0.000061139               0.005187552               0.000092823              -0.000671370               0.001952956               0.001281587               0.000000000               0.000000000               0.000000000               0.000000000              -0.000032861               0.005126322               0.000047101              -0.000653112               0.001926461               0.001273349               0.000000000               0.000000000               0.000000000               0.000000000               0.001920893               0.011518416              -0.004160912              -0.000719469               0.004079256               0.003359786               0.000000000               0.000000000               0.000000000               0.000000000              -0.000078489               0.010899753              -0.002361658              -0.001391901               0.004097181               0.002705280               0.000000000               0.000000000               0.000000000               0.000000000              -0.001583872               0.010864013              -0.000655691              -0.001951949               0.004271951               0.002320002               0.000000000               0.000000000               0.000000000               0.000000000              -0.002052073               0.010284445              -0.000081091              -0.002055078               0.004113140               0.002058062               0.000000000               0.000000000               0.000000000               0.000000000              -0.002100742               0.009619578               0.000128341              -0.001990221               0.003869901               0.001879680               0.000000000               0.000000000               0.000000000               0.000000000              -0.001971762               0.008979823               0.000209975              -0.001861884               0.003613872               0.001751988               0.000000000               0.000000000               0.000000000               0.000000000              -0.001777927               0.008387274               0.000248517              -0.001715128               0.003367439               0.001652311               0.000000000               0.000000000               0.000000000               0.000000000              -0.001557525               0.007843535               0.000269467              -0.001564510               0.003135989               0.001571479               0.000000000               0.000000000               0.000000000               0.000000000              -0.001324272               0.007343627               0.000278233              -0.001414552               0.002919368               0.001504816               0.000000000               0.000000000               0.000000000               0.000000000              -0.001078809               0.006872469               0.000273512              -0.001263609               0.002712003               0.001448394               0.000000000               0.000000000               0.000000000               0.000000000              -0.000826405               0.006432505               0.000255463              -0.001113962               0.002515467               0.001401505               0.000000000               0.000000000               0.000000000               0.000000000              -0.000588678               0.006042121               0.000225065              -0.000976017               0.002339359               0.001363342               0.000000000               0.000000000               0.000000000               0.000000000              -0.000381767               0.005717928               0.000180149              -0.000857902               0.002191924               0.001334023               0.000000000               0.000000000               0.000000000               0.000000000              -0.000218937               0.005465511               0.000126584              -0.000765288               0.002076915               0.001311626               0.000000000               0.000000000               0.000000000               0.000000000              -0.000105374               0.005283840               0.000072210              -0.000699994               0.001994594               0.001294600               0.000000000               0.000000000               0.000000000               0.000000000              -0.000037250               0.005167394               0.000027240              -0.000659891               0.001942411               0.001282520               0.000000000               0.000000000               0.000000000               0.000000000              -0.000023207               0.005112962               0.000013884              -0.000647821               0.001920244               0.001272423               0.000000000               0.000000000               0.000000000               0.000000000               0.001068180               0.008930558              -0.003499662              -0.000715754               0.003215406               0.002499653               0.000000000               0.000000000               0.000000000               0.000000000              -0.000898680               0.009338124              -0.002257243              -0.001504268               0.003614099               0.002109831               0.000000000               0.000000000               0.000000000               0.000000000              -0.002426219               0.010019006              -0.001037874              -0.002162203               0.004060369               0.001898167               0.000000000               0.000000000               0.000000000               0.000000000              -0.002692950               0.009691554              -0.000574153              -0.002221295               0.003970917               0.001749622               0.000000000               0.000000000               0.000000000               0.000000000              -0.002542029               0.009148988              -0.000351434              -0.002096879               0.003748592               0.001651713               0.000000000               0.000000000               0.000000000               0.000000000              -0.002255020               0.008574459              -0.000224288              -0.001917435               0.003497269               0.001579834               0.000000000               0.000000000               0.000000000               0.000000000              -0.001937688               0.008019626              -0.000136023              -0.001729082               0.003249543               0.001520460               0.000000000               0.000000000               0.000000000               0.000000000              -0.001616477               0.007501459              -0.000067790              -0.001543857               0.003015080               0.001471223               0.000000000               0.000000000               0.000000000               0.000000000              -0.001298885               0.007019621              -0.000019121              -0.001364531               0.002794694               0.001430163               0.000000000               0.000000000               0.000000000               0.000000000              -0.000992046               0.006565880               0.000007148              -0.001192749               0.002586188               0.001393439               0.000000000               0.000000000               0.000000000               0.000000000              -0.000705421               0.006156453               0.000020707              -0.001034087               0.002396826               0.001362739               0.000000000               0.000000000               0.000000000               0.000000000              -0.000460241               0.005811160               0.000027047              -0.000898983               0.002236695               0.001337712               0.000000000               0.000000000               0.000000000               0.000000000              -0.000270601               0.005537453               0.000022990              -0.000793655               0.002110351               0.001316696               0.000000000               0.000000000               0.000000000               0.000000000              -0.000137665               0.005335350               0.000012444              -0.000718541               0.002017946               0.001299404               0.000000000               0.000000000               0.000000000               0.000000000              -0.000055252               0.005194623               0.000003511              -0.000670046               0.001954872               0.001284827               0.000000000               0.000000000               0.000000000               0.000000000              -0.000015601               0.005102218               0.000000255              -0.000643626               0.001915264               0.001271638               0.000000000               0.000000000               0.000000000               0.000000000              -0.000015994               0.005055234               0.000005562              -0.000637901               0.001897695               0.001259794               0.000000000               0.000000000               0.000000000               0.000000000               0.000030298               0.006738371              -0.002669600              -0.000830935               0.002523079               0.001692144               0.000000000               0.000000000               0.000000000               0.000000000              -0.001696136               0.007943763              -0.002126459              -0.001629018               0.003190900               0.001561882               0.000000000               0.000000000               0.000000000               0.000000000              -0.003067957               0.009195170              -0.001485216              -0.002299875               0.003831651               0.001531776               0.000000000               0.000000000               0.000000000               0.000000000              -0.003117398               0.009129699              -0.001093751              -0.002310231               0.003813280               0.001503049               0.000000000               0.000000000               0.000000000               0.000000000              -0.002802676               0.008729779              -0.000834424              -0.002142221               0.003623971               0.001481750               0.000000000               0.000000000               0.000000000               0.000000000              -0.002392206               0.008239293              -0.000651331              -0.001926984               0.003388732               0.001461747               0.000000000               0.000000000               0.000000000               0.000000000              -0.001982008               0.007739910              -0.000511746              -0.001710738               0.003150190               0.001439452               0.000000000               0.000000000               0.000000000               0.000000000              -0.001586455               0.007263606              -0.000396982              -0.001502868               0.002922134               0.001419266               0.000000000               0.000000000               0.000000000               0.000000000              -0.001206152               0.006807638              -0.000304814              -0.001303259               0.002703610               0.001400351               0.000000000               0.000000000               0.000000000               0.000000000              -0.000856131               0.006373492              -0.000235014              -0.001117733               0.002497054               0.001379321               0.000000000               0.000000000               0.000000000               0.000000000              -0.000554316               0.005992392              -0.000178265              -0.000956915               0.002316416               0.001359501               0.000000000               0.000000000               0.000000000               0.000000000              -0.000320290               0.005679092              -0.000127475              -0.000829993               0.002169676               0.001339683               0.000000000               0.000000000               0.000000000               0.000000000              -0.000157482               0.005435831              -0.000087035              -0.000738533               0.002058103               0.001319570               0.000000000               0.000000000               0.000000000               0.000000000              -0.000056612               0.005256642              -0.000054211              -0.000678308               0.001978299               0.001299991               0.000000000               0.000000000               0.000000000               0.000000000              -0.000007148               0.005134347              -0.000026049              -0.000644472               0.001926256               0.001281784               0.000000000               0.000000000               0.000000000               0.000000000               0.000003697               0.005056937              -0.000004802              -0.000630729               0.001895872               0.001265143               0.000000000               0.000000000               0.000000000               0.000000000              -0.000001551               0.005024558               0.000005116              -0.000628650               0.001884386               0.001255736               0.000000000               0.000000000               0.000000000               0.000000000              -0.001194260               0.004700942              -0.001786934              -0.001035464               0.001912119               0.000876655               0.000000000               0.000000000               0.000000000               0.000000000              -0.002351759               0.006350854              -0.001974675              -0.001675763               0.002675517               0.000999754               0.000000000               0.000000000               0.000000000               0.000000000              -0.003424342               0.008008331              -0.001952691              -0.002285165               0.003431138               0.001145973               0.000000000               0.000000000               0.000000000               0.000000000              -0.003361960               0.008312934              -0.001650276              -0.002299847               0.003537566               0.001237719               0.000000000               0.000000000               0.000000000               0.000000000              -0.002992603               0.008169106              -0.001361741              -0.002143359               0.003437461               0.001294102               0.000000000               0.000000000               0.000000000               0.000000000              -0.002542597               0.007860308              -0.001123435              -0.001936008               0.003265412               0.001329404               0.000000000               0.000000000               0.000000000               0.000000000              -0.002097696               0.007497101              -0.000931744              -0.001723770               0.003073598               0.001349829               0.000000000               0.000000000               0.000000000               0.000000000              -0.001682011               0.007125518              -0.000771801              -0.001521440               0.002882296               0.001360855               0.000000000               0.000000000               0.000000000               0.000000000              -0.001290488               0.006755165              -0.000635202              -0.001328325               0.002694474               0.001366149               0.000000000               0.000000000               0.000000000               0.000000000              -0.000928482               0.006388457              -0.000513927              -0.001146735               0.002511709               0.001364974               0.000000000               0.000000000               0.000000000               0.000000000              -0.000612606               0.006043435              -0.000404005              -0.000985154               0.002342843               0.001357689               0.000000000               0.000000000               0.000000000               0.000000000              -0.000358049               0.005742738              -0.000304501              -0.000852109               0.002198263               0.001346155               0.000000000               0.000000000               0.000000000               0.000000000              -0.000174713               0.005494412              -0.000218388              -0.000752317               0.002082225               0.001329907               0.000000000               0.000000000               0.000000000               0.000000000              -0.000058602               0.005298988              -0.000140647              -0.000684347               0.001994427               0.001310080               0.000000000               0.000000000               0.000000000               0.000000000               0.000001275               0.005157274              -0.000072486              -0.000644180               0.001933801               0.001289621               0.000000000               0.000000000               0.000000000               0.000000000               0.000016487               0.005061245              -0.000024271              -0.000626471               0.001895889               0.001269417               0.000000000               0.000000000               0.000000000               0.000000000               0.000013939               0.005025707              -0.000005910              -0.000622985               0.001882880               0.001259896               0.000000000               0.000000000               0.000000000               0.000000000              -0.002762318               0.002860630              -0.000907173              -0.001393445               0.001418014               0.000024569               0.000000000               0.000000000               0.000000000               0.000000000              -0.003086834               0.004758307              -0.001745760              -0.001752348               0.002170202               0.000417854               0.000000000               0.000000000               0.000000000               0.000000000              -0.003677852               0.006633991              -0.002317086              -0.002208439               0.002947454               0.000739015               0.000000000               0.000000000               0.000000000               0.000000000              -0.003515012               0.007286645              -0.002175696              -0.002228955               0.003171842               0.000942887               0.000000000               0.000000000               0.000000000               0.000000000              -0.003126938               0.007436692              -0.001901192              -0.002102184               0.003179600               0.001077416               0.000000000               0.000000000               0.000000000               0.000000000              -0.002669728               0.007358370              -0.001632364              -0.001920940               0.003093078               0.001172138               0.000000000               0.000000000               0.000000000               0.000000000              -0.002213864               0.007169669              -0.001397259              -0.001726404               0.002965333               0.001238930               0.000000000               0.000000000               0.000000000               0.000000000              -0.001788168               0.006930077              -0.001197438              -0.001536819               0.002822275               0.001285456               0.000000000               0.000000000               0.000000000               0.000000000              -0.001392734               0.006668871              -0.001022524              -0.001355881               0.002674895               0.001319014               0.000000000               0.000000000               0.000000000               0.000000000              -0.001023982               0.006397801              -0.000859031              -0.001183716               0.002527151               0.001343435               0.000000000               0.000000000               0.000000000               0.000000000              -0.000689656               0.006114445              -0.000705863              -0.001022924               0.002379103               0.001356178               0.000000000               0.000000000               0.000000000               0.000000000              -0.000399105               0.005839627              -0.000562707              -0.000879616               0.002239728               0.001360112               0.000000000               0.000000000               0.000000000               0.000000000              -0.000170530               0.005591432              -0.000428651              -0.000762876               0.002118084               0.001355208               0.000000000               0.000000000               0.000000000               0.000000000              -0.000013651               0.005380214              -0.000302642              -0.000677644               0.002019268               0.001341624               0.000000000               0.000000000               0.000000000               0.000000000               0.000074037               0.005211031              -0.000183711              -0.000623614               0.001944864               0.001321251               0.000000000               0.000000000               0.000000000               0.000000000               0.000097430               0.005088974              -0.000081976              -0.000599584               0.001896169               0.001296585               0.000000000               0.000000000               0.000000000               0.000000000               0.000084752               0.005036021              -0.000033679              -0.000597719               0.001877897               0.001280177               0.000000000               0.000000000               0.000000000               0.000000000              -0.004578943               0.001356549              -0.000106744              -0.001886669               0.001081066              -0.000805604               0.000000000               0.000000000               0.000000000               0.000000000              -0.003956855               0.003258613              -0.001420619              -0.001891143               0.001716573              -0.000174570               0.000000000               0.000000000               0.000000000               0.000000000              -0.003870691               0.005089493              -0.002463175              -0.002087691               0.002392377               0.000304685               0.000000000               0.000000000               0.000000000               0.000000000              -0.003521469               0.005981268              -0.002522175              -0.002068205               0.002683137               0.000614932               0.000000000               0.000000000               0.000000000               0.000000000              -0.003098186               0.006398183              -0.002317512              -0.001961589               0.002786568               0.000824980               0.000000000               0.000000000               0.000000000               0.000000000              -0.002645320               0.006557566              -0.002059701              -0.001811687               0.002789729               0.000978042               0.000000000               0.000000000               0.000000000               0.000000000              -0.002195849               0.006567939              -0.001809035              -0.001644432               0.002737435               0.001093002               0.000000000               0.000000000               0.000000000               0.000000000              -0.001771354               0.006494272              -0.001587249              -0.001476039               0.002656748               0.001180710               0.000000000               0.000000000               0.000000000               0.000000000              -0.001378033               0.006373135              -0.001390675              -0.001313402               0.002562157               0.001248756               0.000000000               0.000000000               0.000000000               0.000000000              -0.001007865               0.006220365              -0.001206327              -0.001155493               0.002458598               0.001303106               0.000000000               0.000000000               0.000000000               0.000000000              -0.000661017               0.006030726              -0.001030634              -0.001001720               0.002344129               0.001342409               0.000000000               0.000000000               0.000000000               0.000000000              -0.000347391               0.005819200              -0.000859078              -0.000857670               0.002225604               0.001367934               0.000000000               0.000000000               0.000000000               0.000000000              -0.000076429               0.005610817              -0.000688226              -0.000730011               0.002113591               0.001383579               0.000000000               0.000000000               0.000000000               0.000000000               0.000129783               0.005415465              -0.000515650              -0.000628263               0.002014558               0.001386295               0.000000000               0.000000000               0.000000000               0.000000000               0.000256841               0.005242276              -0.000340361              -0.000558968               0.001933730               0.001374763               0.000000000               0.000000000               0.000000000               0.000000000               0.000299680               0.005105798              -0.000167017              -0.000525843               0.001877197               0.001351353               0.000000000               0.000000000               0.000000000               0.000000000               0.000284310               0.005038858              -0.000077354              -0.000523240               0.001854016               0.001330776               0.000000000               0.000000000               0.000000000               0.000000000              -0.006522392               0.000257300               0.000498614              -0.002478057               0.000911779              -0.001566278               0.000000000               0.000000000               0.000000000               0.000000000              -0.004913158               0.001934465              -0.001048256              -0.002084239               0.001339559              -0.000744681               0.000000000               0.000000000               0.000000000               0.000000000              -0.004032823               0.003506282              -0.002363963              -0.001950590               0.001818944              -0.000131646               0.000000000               0.000000000               0.000000000               0.000000000              -0.003412195               0.004503443              -0.002600384              -0.001842500               0.002115298               0.000272798               0.000000000               0.000000000               0.000000000               0.000000000              -0.002911767               0.005122101              -0.002495375              -0.001732172               0.002284739               0.000552567               0.000000000               0.000000000               0.000000000               0.000000000              -0.002457752               0.005496026              -0.002286265              -0.001608657               0.002368209               0.000759551               0.000000000               0.000000000               0.000000000               0.000000000              -0.002024943               0.005711488              -0.002054896              -0.001473287               0.002394905               0.000921618               0.000000000               0.000000000               0.000000000               0.000000000              -0.001612716               0.005823763              -0.001835380              -0.001332737               0.002385480               0.001052744               0.000000000               0.000000000               0.000000000               0.000000000              -0.001228200               0.005859273              -0.001637831              -0.001192982               0.002350732               0.001157750               0.000000000               0.000000000               0.000000000               0.000000000              -0.000865105               0.005833025              -0.001457103              -0.001053540               0.002295502               0.001241962               0.000000000               0.000000000               0.000000000               0.000000000              -0.000514649               0.005759508              -0.001282927              -0.000912930               0.002224127               0.001311197               0.000000000               0.000000000               0.000000000               0.000000000              -0.000178375               0.005650080              -0.001108003              -0.000773149               0.002141057               0.001367908               0.000000000               0.000000000               0.000000000               0.000000000               0.000130474               0.005517505              -0.000924516              -0.000640759               0.002052736               0.001411977               0.000000000               0.000000000               0.000000000               0.000000000               0.000393856               0.005374933              -0.000723480              -0.000524170               0.001966349               0.001442180               0.000000000               0.000000000               0.000000000               0.000000000               0.000592944               0.005235146              -0.000503946              -0.000432038               0.001889044               0.001457005               0.000000000               0.000000000               0.000000000               0.000000000               0.000705751               0.005109821              -0.000261879              -0.000374070               0.001827947               0.001453877               0.000000000               0.000000000               0.000000000               0.000000000               0.000731184               0.005046315              -0.000133251              -0.000356595               0.001800953               0.001444358               0.000000000               0.000000000               0.000000000               0.000000000              -0.008396541              -0.000454542               0.000811580              -0.003091883               0.000879107              -0.002212775               0.000000000               0.000000000               0.000000000               0.000000000              -0.005868103               0.000857364              -0.000688363              -0.002307707               0.001055016              -0.001252691               0.000000000               0.000000000               0.000000000               0.000000000              -0.004177343               0.002033072              -0.002021381              -0.001820635               0.001284559              -0.000536076               0.000000000               0.000000000               0.000000000               0.000000000              -0.003235642               0.003019213              -0.002356294              -0.001590765               0.001536648              -0.000054117               0.000000000               0.000000000               0.000000000               0.000000000              -0.002616406               0.003760788              -0.002342428              -0.001451248               0.001737332               0.000286083               0.000000000               0.000000000               0.000000000               0.000000000              -0.002139026               0.004301610              -0.002201989              -0.001339834               0.001880466               0.000540632               0.000000000               0.000000000               0.000000000               0.000000000              -0.001721382               0.004694459              -0.002017307              -0.001232324               0.001975578               0.000743254               0.000000000               0.000000000               0.000000000               0.000000000              -0.001329430               0.004977107              -0.001828002              -0.001120673               0.002032576               0.000911903               0.000000000               0.000000000               0.000000000               0.000000000              -0.000959926               0.005167758              -0.001652201              -0.001005940               0.002057882               0.001051941               0.000000000               0.000000000               0.000000000               0.000000000              -0.000604741               0.005277097              -0.001494360              -0.000886413               0.002054486               0.001168072               0.000000000               0.000000000               0.000000000               0.000000000              -0.000253490               0.005329648              -0.001346301              -0.000761263               0.002030286               0.001269022               0.000000000               0.000000000               0.000000000               0.000000000               0.000100036               0.005339295              -0.001193891              -0.000629898               0.001989713               0.001359815               0.000000000               0.000000000               0.000000000               0.000000000               0.000446847               0.005310376              -0.001024555              -0.000496229               0.001935517               0.001439288               0.000000000               0.000000000               0.000000000               0.000000000               0.000778135               0.005251472              -0.000831452              -0.000364633               0.001872017               0.001507384               0.000000000               0.000000000               0.000000000               0.000000000               0.001082965               0.005173279              -0.000604849              -0.000240548               0.001804592               0.001564044               0.000000000               0.000000000               0.000000000               0.000000000               0.001336823               0.005087833              -0.000326716              -0.000134670               0.001740817               0.001606147               0.000000000               0.000000000               0.000000000               0.000000000               0.001475155               0.005053660              -0.000178709              -0.000078525               0.001710711               0.001632187               0.000000000               0.000000000               0.000000000               0.000000000              -0.009974981              -0.000849286               0.000791589              -0.003634455               0.000928383              -0.002706072               0.000000000               0.000000000               0.000000000               0.000000000              -0.006700434               0.000075979              -0.000391063              -0.002522158               0.000866039              -0.001656118               0.000000000               0.000000000               0.000000000               0.000000000              -0.004303656               0.000835327              -0.001473251              -0.001718285               0.000851197              -0.000867088               0.000000000               0.000000000               0.000000000               0.000000000              -0.003046513               0.001737584              -0.001794503              -0.001359638               0.001032400              -0.000327239               0.000000000               0.000000000               0.000000000               0.000000000              -0.002291837               0.002534114              -0.001829540              -0.001176201               0.001236762               0.000060561               0.000000000               0.000000000               0.000000000               0.000000000              -0.001772365               0.003183306              -0.001752469              -0.001062548               0.001415273               0.000352725               0.000000000               0.000000000               0.000000000               0.000000000              -0.001357725               0.003704967              -0.001629395              -0.000972266               0.001559065               0.000586799               0.000000000               0.000000000               0.000000000               0.000000000              -0.000986526               0.004122846              -0.001491204              -0.000885301               0.001669368               0.000784067               0.000000000               0.000000000               0.000000000               0.000000000              -0.000635525               0.004447010              -0.001359813              -0.000794197               0.001747054               0.000952857               0.000000000               0.000000000               0.000000000               0.000000000              -0.000290668               0.004681000              -0.001245369              -0.000694124               0.001791692               0.001097568               0.000000000               0.000000000               0.000000000               0.000000000               0.000058048               0.004848057              -0.001138592              -0.000584238               0.001810748               0.001226510               0.000000000               0.000000000               0.000000000               0.000000000               0.000420297               0.004974765              -0.001026306              -0.000464234               0.001812983               0.001348749               0.000000000               0.000000000               0.000000000               0.000000000               0.000801753               0.005056720              -0.000899070              -0.000331432               0.001796034               0.001464601               0.000000000               0.000000000               0.000000000               0.000000000               0.001203059               0.005088300              -0.000750077              -0.000184890               0.001757713               0.001572823               0.000000000               0.000000000               0.000000000               0.000000000               0.001625030               0.005083532              -0.000564733              -0.000026056               0.001703179               0.001677123               0.000000000               0.000000000               0.000000000               0.000000000               0.002065145               0.005051132              -0.000315745               0.000143036               0.001636015               0.001779051               0.000000000               0.000000000               0.000000000               0.000000000               0.002373747               0.005058791              -0.000183342               0.000257804               0.001600312               0.001858116               0.000000000               0.000000000               0.000000000               0.000000000              -0.011034465              -0.001023941               0.000482223              -0.004009929               0.000995323              -0.003014607               0.000000000               0.000000000               0.000000000               0.000000000              -0.007274440              -0.000391019              -0.000169481              -0.002679036               0.000762667              -0.001916369               0.000000000               0.000000000               0.000000000               0.000000000              -0.004394093               0.000053986              -0.000776621              -0.001654532               0.000569502              -0.001085030               0.000000000               0.000000000               0.000000000               0.000000000              -0.002902826               0.000864360              -0.000973163              -0.001196603               0.000686983              -0.000509621               0.000000000               0.000000000               0.000000000               0.000000000              -0.002036275               0.001671023              -0.001007935              -0.000972479               0.000881161              -0.000091318               0.000000000               0.000000000               0.000000000               0.000000000              -0.001475304               0.002378263              -0.000976310              -0.000850520               0.001076253               0.000225733               0.000000000               0.000000000               0.000000000               0.000000000              -0.001058615               0.002978820              -0.000915309              -0.000769332               0.001249374               0.000480042               0.000000000               0.000000000               0.000000000               0.000000000              -0.000702321               0.003481369              -0.000841795              -0.000698540               0.001393291               0.000694751               0.000000000               0.000000000               0.000000000               0.000000000              -0.000363261               0.003895352              -0.000771648              -0.000623141               0.001506151               0.000883010               0.000000000               0.000000000               0.000000000               0.000000000              -0.000029757               0.004222067              -0.000711871              -0.000538916               0.001586980               0.001048064               0.000000000               0.000000000               0.000000000               0.000000000               0.000310601               0.004476758              -0.000656150              -0.000443118               0.001639944               0.001196825               0.000000000               0.000000000               0.000000000               0.000000000               0.000676953               0.004685907              -0.000597947              -0.000331881               0.001672580               0.001340700               0.000000000               0.000000000               0.000000000               0.000000000               0.001082763               0.004850045              -0.000531875              -0.000200219               0.001683405               0.001483186               0.000000000               0.000000000               0.000000000               0.000000000               0.001537732               0.004957441              -0.000451925              -0.000043031               0.001666807               0.001623776               0.000000000               0.000000000               0.000000000               0.000000000               0.002056147               0.005014728              -0.000349152               0.000144213               0.001623488               0.001767701               0.000000000               0.000000000               0.000000000               0.000000000               0.002658339               0.005024919              -0.000202240               0.000368758               0.001552037               0.001920795               0.000000000               0.000000000               0.000000000               0.000000000               0.003127017               0.005068030              -0.000123697               0.000539122               0.001509619               0.002048741               0.000000000               0.000000000               0.000000000               0.000000000              -0.011407432              -0.001068698              -0.000000000              -0.004144197               0.001025159              -0.003119038               0.000000000               0.000000000               0.000000000               0.000000000              -0.007479196              -0.000544595              -0.000000000              -0.002736622               0.000730671              -0.002005952               0.000000000               0.000000000               0.000000000               0.000000000              -0.004426491              -0.000216227              -0.000000000              -0.001632905               0.000472223              -0.001160682               0.000000000               0.000000000               0.000000000               0.000000000              -0.002849534               0.000555314               0.000000000              -0.001137988               0.000564430              -0.000573558               0.000000000               0.000000000               0.000000000               0.000000000              -0.001938409               0.001359595              -0.000000000              -0.000896851               0.000752144              -0.000144708               0.000000000               0.000000000               0.000000000               0.000000000              -0.001360928               0.002083328              -0.000000000              -0.000770762               0.000951356               0.000180594               0.000000000               0.000000000               0.000000000               0.000000000              -0.000943967               0.002710291               0.000000000              -0.000692772               0.001134345               0.000441573               0.000000000               0.000000000               0.000000000               0.000000000              -0.000592806               0.003240438               0.000000000              -0.000627355               0.001289254               0.000661898               0.000000000               0.000000000               0.000000000               0.000000000              -0.000258297               0.003685238              -0.000000000              -0.000557515               0.001414239               0.000856724               0.000000000               0.000000000               0.000000000               0.000000000               0.000070464               0.004049448               0.000000000              -0.000479756               0.001509721               0.001029965               0.000000000               0.000000000               0.000000000               0.000000000               0.000407696               0.004341072               0.000000000              -0.000389747               0.001576925               0.001187178               0.000000000               0.000000000               0.000000000               0.000000000               0.000776029               0.004581443               0.000000000              -0.000281669               0.001621022               0.001339353               0.000000000               0.000000000               0.000000000               0.000000000               0.001191376               0.004775953               0.000000000              -0.000150228               0.001642044               0.001491816               0.000000000               0.000000000               0.000000000               0.000000000               0.001666627               0.004912349               0.000000000               0.000010941               0.001633786               0.001644727               0.000000000               0.000000000               0.000000000               0.000000000               0.002223322               0.004991756              -0.000000000               0.000209774               0.001593977               0.001803751               0.000000000               0.000000000               0.000000000               0.000000000               0.002888953               0.005013999               0.000000000               0.000456603               0.001519115               0.001975718               0.000000000               0.000000000               0.000000000               0.000000000               0.003422913               0.005069037               0.000000000               0.000649956               0.001473010               0.002122966               0.000000000               0.000000000               0.000000000               0.000000000               0.000000000               0.000000000               0.000000000               0.000000000               0.000000000               0.000000000               0.000000000               0.000000000               0.000000000               0.000000000               0.000000000               0.000000000               0.000000000               0.000000000               0.000000000               0.000000000               0.000000000               0.000000000               0.000000000               0.000000000               0.000000000               0.000000000               0.000000000               0.000000000               0.000000000               0.000000000               0.000000000               0.000000000               0.000000000               0.000000000               0.000000000               0.000000000               0.000000000               0.000000000               0.000000000               0.000000000               0.000000000               0.000000000               0.000000000               0.000000000               0.000000000               0.000000000               0.000000000               0.000000000               0.000000000               0.000000000               0.000000000               0.000000000               0.000000000               0.000000000               0.000000000               0.000000000               0.000000000               0.000000000               0.000000000               0.000000000               0.000000000               0.000000000               0.000000000               0.000000000               0.000000000               0.000000000               0.000000000               0.000000000               0.000000000               0.000000000               0.000000000               0.000000000               0.000000000               0.000000000               0.000000000               0.000000000               0.000000000               0.000000000               0.000000000               0.000000000               0.000000000               0.000000000               0.000000000               0.000000000               0.000000000               0.000000000               0.000000000               0.000000000               0.000000000               0.000000000               0.000000000               0.000000000               0.000000000               0.000000000               0.000000000               0.000000000               0.000000000               0.000000000               0.000000000               0.000000000               0.000000000               0.000000000               0.000000000               0.000000000               0.000000000               0.000000000               0.000000000               0.000000000               0.000000000               0.000000000               0.000000000               0.000000000               0.000000000               0.000000000               0.000000000               0.000000000               0.000000000               0.000000000               0.000000000               0.000000000               0.000000000               0.000000000               0.000000000               0.000000000               0.000000000               0.000000000               0.000000000               0.000000000               0.000000000               0.000000000               0.000000000               0.000000000               0.000000000               0.000000000               0.000000000               0.000000000               0.000000000               0.000000000               0.000000000               0.000000000               0.000000000               0.000000000               0.000000000               0.000000000               0.000000000               0.000000000               0.000000000               0.000000000               0.000000000               0.000000000               0.000000000               0.000000000               0.000000000               0.000000000               0.000000000               0.000000000               0.000000000               0.000000000               0.000000000               0.000000000               0.000000000               0.000000000               0.000000000               0.000000000               0.000000000               0.000000000               0.000000000               0.000000000               0.000000000               0.000000000               0.000000000               0.000000000               0.000000000               0.000000000               0.002282150               0.023309517               0.001627470              -0.002057879               0.008455721               0.006397842               0.000000000               0.000000000               0.000000000               0.000000000               0.002153637               0.018280966               0.000814732              -0.001477503               0.006586095               0.005108592               0.000000000               0.000000000               0.000000000               0.000000000               0.002714965               0.014232951               0.000001897              -0.000761005               0.004997938               0.004236933               0.000000000               0.000000000               0.000000000               0.000000000               0.002542716               0.011952460              -0.000339417              -0.000540538               0.004164293               0.003623755               0.000000000               0.000000000               0.000000000               0.000000000               0.002170564               0.010515039              -0.000472430              -0.000500417               0.003671784               0.003171366               0.000000000               0.000000000               0.000000000               0.000000000               0.001781855               0.009521697              -0.000515207              -0.000522015               0.003347872               0.002825857               0.000000000               0.000000000               0.000000000               0.000000000               0.001426924               0.008775466              -0.000518503              -0.000561835               0.003112404               0.002550569               0.000000000               0.000000000               0.000000000               0.000000000               0.001112669               0.008172322              -0.000505462              -0.000604288               0.002925509               0.002321221               0.000000000               0.000000000               0.000000000               0.000000000               0.000843130               0.007655264              -0.000482352              -0.000640733               0.002765307               0.002124574               0.000000000               0.000000000               0.000000000               0.000000000               0.000621118               0.007186082              -0.000451987              -0.000665339               0.002617116               0.001951777               0.000000000               0.000000000               0.000000000               0.000000000               0.000441831               0.006740111              -0.000418439              -0.000676826               0.002472290               0.001795464               0.000000000               0.000000000               0.000000000               0.000000000               0.000294298               0.006298331              -0.000383410              -0.000676928               0.002325065               0.001648137               0.000000000               0.000000000               0.000000000               0.000000000               0.000174224               0.005847019              -0.000344675              -0.000665542               0.002170834               0.001505292               0.000000000               0.000000000               0.000000000               0.000000000               0.000082424               0.005372236              -0.000295717              -0.000640619               0.002004267               0.001363648               0.000000000               0.000000000               0.000000000               0.000000000               0.000021514               0.004859409              -0.000228384              -0.000599357               0.001819572               0.001220215               0.000000000               0.000000000               0.000000000               0.000000000              -0.000001210               0.004295000              -0.000130096              -0.000537328               0.001610762               0.001073434               0.000000000               0.000000000               0.000000000               0.000000000              -0.000047767               0.003870627              -0.000081885              -0.000501740               0.001457443               0.000955703               0.000000000               0.000000000               0.000000000               0.000000000               0.002467057               0.021894006               0.003018828              -0.001811601               0.007901796               0.006090194               0.000000000               0.000000000               0.000000000               0.000000000               0.002001115               0.017354642               0.001507600              -0.001418909               0.006257793               0.004838883               0.000000000               0.000000000               0.000000000               0.000000000               0.002199655               0.013812899               0.000012412              -0.000901740               0.004904834               0.004003094               0.000000000               0.000000000               0.000000000               0.000000000               0.001892838               0.011780665              -0.000597650              -0.000762767               0.004181105               0.003418338               0.000000000               0.000000000               0.000000000               0.000000000               0.001494790               0.010469306              -0.000829019              -0.000748115               0.003739106               0.002990990               0.000000000               0.000000000               0.000000000               0.000000000               0.001132405               0.009535859              -0.000898723              -0.000767329               0.003434364               0.002667035               0.000000000               0.000000000               0.000000000               0.000000000               0.000832309               0.008812786              -0.000898563              -0.000789481               0.003200726               0.002411245               0.000000000               0.000000000               0.000000000               0.000000000               0.000580948               0.008212342              -0.000869202              -0.000808685               0.003006982               0.002198296               0.000000000               0.000000000               0.000000000               0.000000000               0.000373546               0.007687201              -0.000825574              -0.000820819               0.002835981               0.002015162               0.000000000               0.000000000               0.000000000               0.000000000               0.000211320               0.007214076              -0.000772263              -0.000822513               0.002678839               0.001856326               0.000000000               0.000000000               0.000000000               0.000000000               0.000088655               0.006770375              -0.000713872              -0.000813050               0.002527786               0.001714736               0.000000000               0.000000000               0.000000000               0.000000000              -0.000002961               0.006337308              -0.000650679              -0.000793272               0.002376839               0.001583567               0.000000000               0.000000000               0.000000000               0.000000000              -0.000063288               0.005898589              -0.000578984              -0.000761055               0.002219861               0.001458807               0.000000000               0.000000000               0.000000000               0.000000000              -0.000088441               0.005447142              -0.000490202              -0.000714056               0.002053715               0.001339658               0.000000000               0.000000000               0.000000000               0.000000000              -0.000081542               0.004984303              -0.000374750              -0.000653614               0.001879289               0.001225675               0.000000000               0.000000000               0.000000000               0.000000000              -0.000047982               0.004512427              -0.000213096              -0.000582045               0.001698142               0.001116097               0.000000000               0.000000000               0.000000000               0.000000000              -0.000061605               0.004182271              -0.000132154              -0.000545884               0.001576038               0.001030154               0.000000000               0.000000000               0.000000000               0.000000000               0.002648471               0.019738561               0.004010985              -0.001474142               0.007070835               0.005596693               0.000000000               0.000000000               0.000000000               0.000000000               0.001711028               0.015970099               0.002008621              -0.001354624               0.005774854               0.004420230               0.000000000               0.000000000               0.000000000               0.000000000               0.001408616               0.013194672               0.000056213              -0.001121100               0.004771880               0.003650780               0.000000000               0.000000000               0.000000000               0.000000000               0.000949379               0.011527917              -0.000701559              -0.001084970               0.004204257               0.003119287               0.000000000               0.000000000               0.000000000               0.000000000               0.000552479               0.010390780              -0.000973035              -0.001091665               0.003827447               0.002735782               0.000000000               0.000000000               0.000000000               0.000000000               0.000253169               0.009531930              -0.001044901              -0.001096551               0.003542795               0.002446245               0.000000000               0.000000000               0.000000000               0.000000000               0.000035369               0.008836789              -0.001034330              -0.001091333               0.003309344               0.002218012               0.000000000               0.000000000               0.000000000               0.000000000              -0.000120907               0.008242740              -0.000991573              -0.001075680               0.003106113               0.002030432               0.000000000               0.000000000               0.000000000               0.000000000              -0.000224015               0.007717625              -0.000938486              -0.001048706               0.002922085               0.001873378               0.000000000               0.000000000               0.000000000               0.000000000              -0.000286881               0.007240966              -0.000878637              -0.001012699               0.002751197               0.001738499               0.000000000               0.000000000               0.000000000               0.000000000              -0.000318597               0.006796548              -0.000811641              -0.000969040               0.002588507               0.001619466               0.000000000               0.000000000               0.000000000               0.000000000              -0.000319690               0.006370820              -0.000734826              -0.000916234               0.002428997               0.001512762               0.000000000               0.000000000               0.000000000               0.000000000              -0.000290673               0.005953808              -0.000643356              -0.000853226               0.002268992               0.001415765               0.000000000               0.000000000               0.000000000               0.000000000              -0.000238233               0.005546751              -0.000535294              -0.000782679               0.002109791               0.001327112               0.000000000               0.000000000               0.000000000               0.000000000              -0.000163913               0.005164306              -0.000400417              -0.000707004               0.001957086               0.001250082               0.000000000               0.000000000               0.000000000               0.000000000              -0.000081351               0.004821160              -0.000221720              -0.000633150               0.001818087               0.001184937               0.000000000               0.000000000               0.000000000               0.000000000              -0.000064147               0.004611357              -0.000131959              -0.000600473               0.001737262               0.001136788               0.000000000               0.000000000               0.000000000               0.000000000               0.002694206               0.017121371               0.004509898              -0.001129845               0.006083681               0.004953836               0.000000000               0.000000000               0.000000000               0.000000000               0.001262635               0.014326018               0.002289454              -0.001317262               0.005214379               0.003897116               0.000000000               0.000000000               0.000000000               0.000000000               0.000437777               0.012471604               0.000160329              -0.001394781               0.004622087               0.003227306               0.000000000               0.000000000               0.000000000               0.000000000              -0.000124511               0.011206091              -0.000615867              -0.001447449               0.004217809               0.002770360               0.000000000               0.000000000               0.000000000               0.000000000              -0.000468914               0.010244692              -0.000875356              -0.001456426               0.003900338               0.002443912               0.000000000               0.000000000               0.000000000               0.000000000              -0.000659862               0.009464844              -0.000934221              -0.001430550               0.003631767               0.002201216               0.000000000               0.000000000               0.000000000               0.000000000              -0.000754932               0.008803996              -0.000919392              -0.001383596               0.003395834               0.002012239               0.000000000               0.000000000               0.000000000               0.000000000              -0.000787001               0.008223123              -0.000880352              -0.001323013               0.003182018               0.001859005               0.000000000               0.000000000               0.000000000               0.000000000              -0.000769751               0.007700986              -0.000834582              -0.001251277               0.002984062               0.001732785               0.000000000               0.000000000               0.000000000               0.000000000              -0.000718238               0.007222174              -0.000782800              -0.001172108               0.002798070               0.001625962               0.000000000               0.000000000               0.000000000               0.000000000              -0.000641892               0.006774706              -0.000722816              -0.001087545               0.002620728               0.001533183               0.000000000               0.000000000               0.000000000               0.000000000              -0.000542071               0.006352234              -0.000649315              -0.000997303               0.002449825               0.001452521               0.000000000               0.000000000               0.000000000               0.000000000              -0.000422507               0.005958935              -0.000557846              -0.000903305               0.002287393               0.001384088               0.000000000               0.000000000               0.000000000               0.000000000              -0.000297885               0.005604888              -0.000450701              -0.000812316               0.002139049               0.001326733               0.000000000               0.000000000               0.000000000               0.000000000              -0.000180030               0.005305176              -0.000323978              -0.000730656               0.002011926               0.001281270               0.000000000               0.000000000               0.000000000               0.000000000              -0.000082261               0.005079029              -0.000171467              -0.000665725               0.001914901               0.001249176               0.000000000               0.000000000               0.000000000               0.000000000              -0.000050591               0.004969972              -0.000095231              -0.000640217               0.001870046               0.001229830               0.000000000               0.000000000               0.000000000               0.000000000               0.002473106               0.014309074               0.004530292              -0.000861222               0.005056716               0.004195495               0.000000000               0.000000000               0.000000000               0.000000000               0.000655536               0.012595071               0.002387492              -0.001328556               0.004641167               0.003312611               0.000000000               0.000000000               0.000000000               0.000000000              -0.000598344               0.011687697               0.000358208              -0.001685337               0.004457639               0.002772302               0.000000000               0.000000000               0.000000000               0.000000000              -0.001169593               0.010793748              -0.000339276              -0.001787811               0.004193817               0.002406006               0.000000000               0.000000000               0.000000000               0.000000000              -0.001393744               0.009990122              -0.000567193              -0.001771415               0.003920479               0.002149064               0.000000000               0.000000000               0.000000000               0.000000000              -0.001434170               0.009285651              -0.000624989              -0.001698516               0.003661358               0.001962842               0.000000000               0.000000000               0.000000000               0.000000000              -0.001383282               0.008660059              -0.000626268              -0.001601234               0.003420402               0.001819168               0.000000000               0.000000000               0.000000000               0.000000000              -0.001282944               0.008097637              -0.000608154              -0.001493305               0.003196954               0.001703649               0.000000000               0.000000000               0.000000000               0.000000000              -0.001151540               0.007582281              -0.000584607              -0.001379609               0.002987271               0.001607662               0.000000000               0.000000000               0.000000000               0.000000000              -0.000992773               0.007104856              -0.000553523              -0.001260394               0.002788393               0.001527999               0.000000000               0.000000000               0.000000000               0.000000000              -0.000813086               0.006655212              -0.000511632              -0.001136806               0.002597317               0.001460511               0.000000000               0.000000000               0.000000000               0.000000000              -0.000625644               0.006239382              -0.000455208              -0.001014537               0.002417952               0.001403415               0.000000000               0.000000000               0.000000000               0.000000000              -0.000442877               0.005873172              -0.000380755              -0.000900223               0.002257779               0.001357556               0.000000000               0.000000000               0.000000000               0.000000000              -0.000280822               0.005569845              -0.000293344              -0.000801537               0.002123775               0.001322238               0.000000000               0.000000000               0.000000000               0.000000000              -0.000150920               0.005338561              -0.000194643              -0.000723913               0.002020807               0.001296894               0.000000000               0.000000000               0.000000000               0.000000000              -0.000061139               0.005187552              -0.000092823              -0.000671370               0.001952956               0.001281587               0.000000000               0.000000000               0.000000000               0.000000000              -0.000032861               0.005126322              -0.000047101              -0.000653112               0.001926461               0.001273349               0.000000000               0.000000000               0.000000000               0.000000000               0.001920893               0.011518416               0.004160912              -0.000719469               0.004079256               0.003359786               0.000000000               0.000000000               0.000000000               0.000000000              -0.000078489               0.010899753               0.002361658              -0.001391901               0.004097181               0.002705280               0.000000000               0.000000000               0.000000000               0.000000000              -0.001583872               0.010864013               0.000655691              -0.001951949               0.004271951               0.002320002               0.000000000               0.000000000               0.000000000               0.000000000              -0.002052073               0.010284445               0.000081091              -0.002055078               0.004113140               0.002058062               0.000000000               0.000000000               0.000000000               0.000000000              -0.002100742               0.009619578              -0.000128341              -0.001990221               0.003869901               0.001879680               0.000000000               0.000000000               0.000000000               0.000000000              -0.001971762               0.008979823              -0.000209975              -0.001861884               0.003613872               0.001751988               0.000000000               0.000000000               0.000000000               0.000000000              -0.001777927               0.008387274              -0.000248517              -0.001715128               0.003367439               0.001652311               0.000000000               0.000000000               0.000000000               0.000000000              -0.001557525               0.007843535              -0.000269467              -0.001564510               0.003135989               0.001571479               0.000000000               0.000000000               0.000000000               0.000000000              -0.001324272               0.007343627              -0.000278233              -0.001414552               0.002919368               0.001504816               0.000000000               0.000000000               0.000000000               0.000000000              -0.001078809               0.006872469              -0.000273512              -0.001263609               0.002712003               0.001448394               0.000000000               0.000000000               0.000000000               0.000000000              -0.000826405               0.006432505              -0.000255463              -0.001113962               0.002515467               0.001401505               0.000000000               0.000000000               0.000000000               0.000000000              -0.000588678               0.006042121              -0.000225065              -0.000976017               0.002339359               0.001363342               0.000000000               0.000000000               0.000000000               0.000000000              -0.000381767               0.005717928              -0.000180149              -0.000857902               0.002191924               0.001334023               0.000000000               0.000000000               0.000000000               0.000000000              -0.000218937               0.005465511              -0.000126584              -0.000765288               0.002076915               0.001311626               0.000000000               0.000000000               0.000000000               0.000000000              -0.000105374               0.005283840              -0.000072210              -0.000699994               0.001994594               0.001294600               0.000000000               0.000000000               0.000000000               0.000000000              -0.000037250               0.005167394              -0.000027240              -0.000659891               0.001942411               0.001282520               0.000000000               0.000000000               0.000000000               0.000000000              -0.000023207               0.005112962              -0.000013884              -0.000647821               0.001920244               0.001272423               0.000000000               0.000000000               0.000000000               0.000000000               0.001068180               0.008930558               0.003499662              -0.000715754               0.003215406               0.002499653               0.000000000               0.000000000               0.000000000               0.000000000              -0.000898680               0.009338124               0.002257243              -0.001504268               0.003614099               0.002109831               0.000000000               0.000000000               0.000000000               0.000000000              -0.002426219               0.010019006               0.001037874              -0.002162203               0.004060369               0.001898167               0.000000000               0.000000000               0.000000000               0.000000000              -0.002692950               0.009691554               0.000574153              -0.002221295               0.003970917               0.001749622               0.000000000               0.000000000               0.000000000               0.000000000              -0.002542029               0.009148988               0.000351434              -0.002096879               0.003748592               0.001651713               0.000000000               0.000000000               0.000000000               0.000000000              -0.002255020               0.008574459               0.000224288              -0.001917435               0.003497269               0.001579834               0.000000000               0.000000000               0.000000000               0.000000000              -0.001937688               0.008019626               0.000136023              -0.001729082               0.003249543               0.001520460               0.000000000               0.000000000               0.000000000               0.000000000              -0.001616477               0.007501459               0.000067790              -0.001543857               0.003015080               0.001471223               0.000000000               0.000000000               0.000000000               0.000000000              -0.001298885               0.007019621               0.000019121              -0.001364531               0.002794694               0.001430163               0.000000000               0.000000000               0.000000000               0.000000000              -0.000992046               0.006565880              -0.000007148              -0.001192749               0.002586188               0.001393439               0.000000000               0.000000000               0.000000000               0.000000000              -0.000705421               0.006156453              -0.000020707              -0.001034087               0.002396826               0.001362739               0.000000000               0.000000000               0.000000000               0.000000000              -0.000460241               0.005811160              -0.000027047              -0.000898983               0.002236695               0.001337712               0.000000000               0.000000000               0.000000000               0.000000000              -0.000270601               0.005537453              -0.000022990              -0.000793655               0.002110351               0.001316696               0.000000000               0.000000000               0.000000000               0.000000000              -0.000137665               0.005335350              -0.000012444              -0.000718541               0.002017946               0.001299404               0.000000000               0.000000000               0.000000000               0.000000000              -0.000055252               0.005194623              -0.000003511              -0.000670046               0.001954872               0.001284827               0.000000000               0.000000000               0.000000000               0.000000000              -0.000015601               0.005102218              -0.000000255              -0.000643626               0.001915264               0.001271638               0.000000000               0.000000000               0.000000000               0.000000000              -0.000015994               0.005055234              -0.000005562              -0.000637901               0.001897695               0.001259794               0.000000000               0.000000000               0.000000000               0.000000000               0.000030298               0.006738371               0.002669600              -0.000830935               0.002523079               0.001692144               0.000000000               0.000000000               0.000000000               0.000000000              -0.001696136               0.007943763               0.002126459              -0.001629018               0.003190900               0.001561882               0.000000000               0.000000000               0.000000000               0.000000000              -0.003067957               0.009195170               0.001485216              -0.002299875               0.003831651               0.001531776               0.000000000               0.000000000               0.000000000               0.000000000              -0.003117398               0.009129699               0.001093751              -0.002310231               0.003813280               0.001503049               0.000000000               0.000000000               0.000000000               0.000000000              -0.002802676               0.008729779               0.000834424              -0.002142221               0.003623971               0.001481750               0.000000000               0.000000000               0.000000000               0.000000000              -0.002392206               0.008239293               0.000651331              -0.001926984               0.003388732               0.001461747               0.000000000               0.000000000               0.000000000               0.000000000              -0.001982008               0.007739910               0.000511746              -0.001710738               0.003150190               0.001439452               0.000000000               0.000000000               0.000000000               0.000000000              -0.001586455               0.007263606               0.000396982              -0.001502868               0.002922134               0.001419266               0.000000000               0.000000000               0.000000000               0.000000000              -0.001206152               0.006807638               0.000304814              -0.001303259               0.002703610               0.001400351               0.000000000               0.000000000               0.000000000               0.000000000              -0.000856131               0.006373492               0.000235014              -0.001117733               0.002497054               0.001379321               0.000000000               0.000000000               0.000000000               0.000000000              -0.000554316               0.005992392               0.000178265              -0.000956915               0.002316416               0.001359501               0.000000000               0.000000000               0.000000000               0.000000000              -0.000320290               0.005679092               0.000127475              -0.000829993               0.002169676               0.001339683               0.000000000               0.000000000               0.000000000               0.000000000              -0.000157482               0.005435831               0.000087035              -0.000738533               0.002058103               0.001319570               0.000000000               0.000000000               0.000000000               0.000000000              -0.000056612               0.005256642               0.000054211              -0.000678308               0.001978299               0.001299991               0.000000000               0.000000000               0.000000000               0.000000000              -0.000007148               0.005134347               0.000026049              -0.000644472               0.001926256               0.001281784               0.000000000               0.000000000               0.000000000               0.000000000               0.000003697               0.005056937               0.000004802              -0.000630729               0.001895872               0.001265143               0.000000000               0.000000000               0.000000000               0.000000000              -0.000001551               0.005024558              -0.000005116              -0.000628650               0.001884386               0.001255736               0.000000000               0.000000000               0.000000000               0.000000000              -0.001194260               0.004700942               0.001786934              -0.001035464               0.001912119               0.000876655               0.000000000               0.000000000               0.000000000               0.000000000              -0.002351759               0.006350854               0.001974675              -0.001675763               0.002675517               0.000999754               0.000000000               0.000000000               0.000000000               0.000000000              -0.003424342               0.008008331               0.001952691              -0.002285165               0.003431138               0.001145973               0.000000000               0.000000000               0.000000000               0.000000000              -0.003361960               0.008312934               0.001650276              -0.002299847               0.003537566               0.001237719               0.000000000               0.000000000               0.000000000               0.000000000              -0.002992603               0.008169106               0.001361741              -0.002143359               0.003437461               0.001294102               0.000000000               0.000000000               0.000000000               0.000000000              -0.002542597               0.007860308               0.001123435              -0.001936008               0.003265412               0.001329404               0.000000000               0.000000000               0.000000000               0.000000000              -0.002097696               0.007497101               0.000931744              -0.001723770               0.003073598               0.001349829               0.000000000               0.000000000               0.000000000               0.000000000              -0.001682011               0.007125518               0.000771801              -0.001521440               0.002882296               0.001360855               0.000000000               0.000000000               0.000000000               0.000000000              -0.001290488               0.006755165               0.000635202              -0.001328325               0.002694474               0.001366149               0.000000000               0.000000000               0.000000000               0.000000000              -0.000928482               0.006388457               0.000513927              -0.001146735               0.002511709               0.001364974               0.000000000               0.000000000               0.000000000               0.000000000              -0.000612606               0.006043435               0.000404005              -0.000985154               0.002342843               0.001357689               0.000000000               0.000000000               0.000000000               0.000000000              -0.000358049               0.005742738               0.000304501              -0.000852109               0.002198263               0.001346155               0.000000000               0.000000000               0.000000000               0.000000000              -0.000174713               0.005494412               0.000218388              -0.000752317               0.002082225               0.001329907               0.000000000               0.000000000               0.000000000               0.000000000              -0.000058602               0.005298988               0.000140647              -0.000684347               0.001994427               0.001310080               0.000000000               0.000000000               0.000000000               0.000000000               0.000001275               0.005157274               0.000072486              -0.000644180               0.001933801               0.001289621               0.000000000               0.000000000               0.000000000               0.000000000               0.000016487               0.005061245               0.000024271              -0.000626471               0.001895889               0.001269417               0.000000000               0.000000000               0.000000000               0.000000000               0.000013939               0.005025707               0.000005910              -0.000622985               0.001882880               0.001259896               0.000000000               0.000000000               0.000000000               0.000000000              -0.002762318               0.002860630               0.000907173              -0.001393445               0.001418014               0.000024569               0.000000000               0.000000000               0.000000000               0.000000000              -0.003086834               0.004758307               0.001745760              -0.001752348               0.002170202               0.000417854               0.000000000               0.000000000               0.000000000               0.000000000              -0.003677852               0.006633991               0.002317086              -0.002208439               0.002947454               0.000739015               0.000000000               0.000000000               0.000000000               0.000000000              -0.003515012               0.007286645               0.002175696              -0.002228955               0.003171842               0.000942887               0.000000000               0.000000000               0.000000000               0.000000000              -0.003126938               0.007436692               0.001901192              -0.002102184               0.003179600               0.001077416               0.000000000               0.000000000               0.000000000               0.000000000              -0.002669728               0.007358370               0.001632364              -0.001920940               0.003093078               0.001172138               0.000000000               0.000000000               0.000000000               0.000000000              -0.002213864               0.007169669               0.001397259              -0.001726404               0.002965333               0.001238930               0.000000000               0.000000000               0.000000000               0.000000000              -0.001788168               0.006930077               0.001197438              -0.001536819               0.002822275               0.001285456               0.000000000               0.000000000               0.000000000               0.000000000              -0.001392734               0.006668871               0.001022524              -0.001355881               0.002674895               0.001319014               0.000000000               0.000000000               0.000000000               0.000000000              -0.001023982               0.006397801               0.000859031              -0.001183716               0.002527151               0.001343435               0.000000000               0.000000000               0.000000000               0.000000000              -0.000689656               0.006114445               0.000705863              -0.001022924               0.002379103               0.001356178               0.000000000               0.000000000               0.000000000               0.000000000              -0.000399105               0.005839627               0.000562707              -0.000879616               0.002239728               0.001360112               0.000000000               0.000000000               0.000000000               0.000000000              -0.000170530               0.005591432               0.000428651              -0.000762876               0.002118084               0.001355208               0.000000000               0.000000000               0.000000000               0.000000000              -0.000013651               0.005380214               0.000302642              -0.000677644               0.002019268               0.001341624               0.000000000               0.000000000               0.000000000               0.000000000               0.000074037               0.005211031               0.000183711              -0.000623614               0.001944864               0.001321251               0.000000000               0.000000000               0.000000000               0.000000000               0.000097430               0.005088974               0.000081976              -0.000599584               0.001896169               0.001296585               0.000000000               0.000000000               0.000000000               0.000000000               0.000084752               0.005036021               0.000033679              -0.000597719               0.001877897               0.001280177               0.000000000               0.000000000               0.000000000               0.000000000              -0.004578943               0.001356549               0.000106744              -0.001886669               0.001081066              -0.000805604               0.000000000               0.000000000               0.000000000               0.000000000              -0.003956855               0.003258613               0.001420619              -0.001891143               0.001716573              -0.000174570               0.000000000               0.000000000               0.000000000               0.000000000              -0.003870691               0.005089493               0.002463175              -0.002087691               0.002392377               0.000304685               0.000000000               0.000000000               0.000000000               0.000000000              -0.003521469               0.005981268               0.002522175              -0.002068205               0.002683137               0.000614932               0.000000000               0.000000000               0.000000000               0.000000000              -0.003098186               0.006398183               0.002317512              -0.001961589               0.002786568               0.000824980               0.000000000               0.000000000               0.000000000               0.000000000              -0.002645320               0.006557566               0.002059701              -0.001811687               0.002789729               0.000978042               0.000000000               0.000000000               0.000000000               0.000000000              -0.002195849               0.006567939               0.001809035              -0.001644432               0.002737435               0.001093002               0.000000000               0.000000000               0.000000000               0.000000000              -0.001771354               0.006494272               0.001587249              -0.001476039               0.002656748               0.001180710               0.000000000               0.000000000               0.000000000               0.000000000              -0.001378033               0.006373135               0.001390675              -0.001313402               0.002562157               0.001248756               0.000000000               0.000000000               0.000000000               0.000000000              -0.001007865               0.006220365               0.001206327              -0.001155493               0.002458598               0.001303106               0.000000000               0.000000000               0.000000000               0.000000000              -0.000661017               0.006030726               0.001030634              -0.001001720               0.002344129               0.001342409               0.000000000               0.000000000               0.000000000               0.000000000              -0.000347391               0.005819200               0.000859078              -0.000857670               0.002225604               0.001367934               0.000000000               0.000000000               0.000000000               0.000000000              -0.000076429               0.005610817               0.000688226              -0.000730011               0.002113591               0.001383579               0.000000000               0.000000000               0.000000000               0.000000000               0.000129783               0.005415465               0.000515650              -0.000628263               0.002014558               0.001386295               0.000000000               0.000000000               0.000000000               0.000000000               0.000256841               0.005242276               0.000340361              -0.000558968               0.001933730               0.001374763               0.000000000               0.000000000               0.000000000               0.000000000               0.000299680               0.005105798               0.000167017              -0.000525843               0.001877197               0.001351353               0.000000000               0.000000000               0.000000000               0.000000000               0.000284310               0.005038858               0.000077354              -0.000523240               0.001854016               0.001330776               0.000000000               0.000000000               0.000000000               0.000000000              -0.006522392               0.000257300              -0.000498614              -0.002478057               0.000911779              -0.001566278               0.000000000               0.000000000               0.000000000               0.000000000              -0.004913158               0.001934465               0.001048256              -0.002084239               0.001339559              -0.000744681               0.000000000               0.000000000               0.000000000               0.000000000              -0.004032823               0.003506282               0.002363963              -0.001950590               0.001818944              -0.000131646               0.000000000               0.000000000               0.000000000               0.000000000              -0.003412195               0.004503443               0.002600384              -0.001842500               0.002115298               0.000272798               0.000000000               0.000000000               0.000000000               0.000000000              -0.002911767               0.005122101               0.002495375              -0.001732172               0.002284739               0.000552567               0.000000000               0.000000000               0.000000000               0.000000000              -0.002457752               0.005496026               0.002286265              -0.001608657               0.002368209               0.000759551               0.000000000               0.000000000               0.000000000               0.000000000              -0.002024943               0.005711488               0.002054896              -0.001473287               0.002394905               0.000921618               0.000000000               0.000000000               0.000000000               0.000000000              -0.001612716               0.005823763               0.001835380              -0.001332737               0.002385480               0.001052744               0.000000000               0.000000000               0.000000000               0.000000000              -0.001228200               0.005859273               0.001637831              -0.001192982               0.002350732               0.001157750               0.000000000               0.000000000               0.000000000               0.000000000              -0.000865105               0.005833025               0.001457103              -0.001053540               0.002295502               0.001241962               0.000000000               0.000000000               0.000000000               0.000000000              -0.000514649               0.005759508               0.001282927              -0.000912930               0.002224127               0.001311197               0.000000000               0.000000000               0.000000000               0.000000000              -0.000178375               0.005650080               0.001108003              -0.000773149               0.002141057               0.001367908               0.000000000               0.000000000               0.000000000               0.000000000               0.000130474               0.005517505               0.000924516              -0.000640759               0.002052736               0.001411977               0.000000000               0.000000000               0.000000000               0.000000000               0.000393856               0.005374933               0.000723480              -0.000524170               0.001966349               0.001442180               0.000000000               0.000000000               0.000000000               0.000000000               0.000592944               0.005235146               0.000503946              -0.000432038               0.001889044               0.001457005               0.000000000               0.000000000               0.000000000               0.000000000               0.000705751               0.005109821               0.000261879              -0.000374070               0.001827947               0.001453877               0.000000000               0.000000000               0.000000000               0.000000000               0.000731184               0.005046315               0.000133251              -0.000356595               0.001800953               0.001444358               0.000000000               0.000000000               0.000000000               0.000000000              -0.008396541              -0.000454542              -0.000811580              -0.003091883               0.000879107              -0.002212775               0.000000000               0.000000000               0.000000000               0.000000000              -0.005868103               0.000857364               0.000688363              -0.002307707               0.001055016              -0.001252691               0.000000000               0.000000000               0.000000000               0.000000000              -0.004177343               0.002033072               0.002021381              -0.001820635               0.001284559              -0.000536076               0.000000000               0.000000000               0.000000000               0.000000000              -0.003235642               0.003019213               0.002356294              -0.001590765               0.001536648              -0.000054117               0.000000000               0.000000000               0.000000000               0.000000000              -0.002616406               0.003760788               0.002342428              -0.001451248               0.001737332               0.000286083               0.000000000               0.000000000               0.000000000               0.000000000              -0.002139026               0.004301610               0.002201989              -0.001339834               0.001880466               0.000540632               0.000000000               0.000000000               0.000000000               0.000000000              -0.001721382               0.004694459               0.002017307              -0.001232324               0.001975578               0.000743254               0.000000000               0.000000000               0.000000000               0.000000000              -0.001329430               0.004977107               0.001828002              -0.001120673               0.002032576               0.000911903               0.000000000               0.000000000               0.000000000               0.000000000              -0.000959926               0.005167758               0.001652201              -0.001005940               0.002057882               0.001051941               0.000000000               0.000000000               0.000000000               0.000000000              -0.000604741               0.005277097               0.001494360              -0.000886413               0.002054486               0.001168072               0.000000000               0.000000000               0.000000000               0.000000000              -0.000253490               0.005329648               0.001346301              -0.000761263               0.002030286               0.001269022               0.000000000               0.000000000               0.000000000               0.000000000               0.000100036               0.005339295               0.001193891              -0.000629898               0.001989713               0.001359815               0.000000000               0.000000000               0.000000000               0.000000000               0.000446847               0.005310376               0.001024555              -0.000496229               0.001935517               0.001439288               0.000000000               0.000000000               0.000000000               0.000000000               0.000778135               0.005251472               0.000831452              -0.000364633               0.001872017               0.001507384               0.000000000               0.000000000               0.000000000               0.000000000               0.001082965               0.005173279               0.000604849              -0.000240548               0.001804592               0.001564044               0.000000000               0.000000000               0.000000000               0.000000000               0.001336823               0.005087833               0.000326716              -0.000134670               0.001740817               0.001606147               0.000000000               0.000000000               0.000000000               0.000000000               0.001475155               0.005053660               0.000178709              -0.000078525               0.001710711               0.001632187               0.000000000               0.000000000               0.000000000               0.000000000              -0.009974981              -0.000849286              -0.000791589              -0.003634455               0.000928383              -0.002706072               0.000000000               0.000000000               0.000000000               0.000000000              -0.006700434               0.000075979               0.000391063              -0.002522158               0.000866039              -0.001656118               0.000000000               0.000000000               0.000000000               0.000000000              -0.004303656               0.000835327               0.001473251              -0.001718285               0.000851197              -0.000867088               0.000000000               0.000000000               0.000000000               0.000000000              -0.003046513               0.001737584               0.001794503              -0.001359638               0.001032400              -0.000327239               0.000000000               0.000000000               0.000000000               0.000000000              -0.002291837               0.002534114               0.001829540              -0.001176201               0.001236762               0.000060561               0.000000000               0.000000000               0.000000000               0.000000000              -0.001772365               0.003183306               0.001752469              -0.001062548               0.001415273               0.000352725               0.000000000               0.000000000               0.000000000               0.000000000              -0.001357725               0.003704967               0.001629395              -0.000972266               0.001559065               0.000586799               0.000000000               0.000000000               0.000000000               0.000000000              -0.000986526               0.004122846               0.001491204              -0.000885301               0.001669368               0.000784067               0.000000000               0.000000000               0.000000000               0.000000000              -0.000635525               0.004447010               0.001359813              -0.000794197               0.001747054               0.000952857               0.000000000               0.000000000               0.000000000               0.000000000              -0.000290668               0.004681000               0.001245369              -0.000694124               0.001791692               0.001097568               0.000000000               0.000000000               0.000000000               0.000000000               0.000058048               0.004848057               0.001138592              -0.000584238               0.001810748               0.001226510               0.000000000               0.000000000               0.000000000               0.000000000               0.000420297               0.004974765               0.001026306              -0.000464234               0.001812983               0.001348749               0.000000000               0.000000000               0.000000000               0.000000000               0.000801753               0.005056720               0.000899070              -0.000331432               0.001796034               0.001464601               0.000000000               0.000000000               0.000000000               0.000000000               0.001203059               0.005088300               0.000750077              -0.000184890               0.001757713               0.001572823               0.000000000               0.000000000               0.000000000               0.000000000               0.001625030               0.005083532               0.000564733              -0.000026056               0.001703179               0.001677123               0.000000000               0.000000000               0.000000000               0.000000000               0.002065145               0.005051132               0.000315745               0.000143036               0.001636015               0.001779051               0.000000000               0.000000000               0.000000000               0.000000000               0.002373747               0.005058791               0.000183342               0.000257804               0.001600312               0.001858116               0.000000000               0.000000000               0.000000000               0.000000000              -0.011034465              -0.001023941              -0.000482223              -0.004009929               0.000995323              -0.003014607               0.000000000               0.000000000               0.000000000               0.000000000              -0.007274440              -0.000391019               0.000169481              -0.002679036               0.000762667              -0.001916369               0.000000000               0.000000000               0.000000000               0.000000000              -0.004394093               0.000053986               0.000776621              -0.001654532               0.000569502              -0.001085030               0.000000000               0.000000000               0.000000000               0.000000000              -0.002902826               0.000864360               0.000973163              -0.001196603               0.000686983              -0.000509621               0.000000000               0.000000000               0.000000000               0.000000000              -0.002036275               0.001671023               0.001007935              -0.000972479               0.000881161              -0.000091318               0.000000000               0.000000000               0.000000000               0.000000000              -0.001475304               0.002378263               0.000976310              -0.000850520               0.001076253               0.000225733               0.000000000               0.000000000               0.000000000               0.000000000              -0.001058615               0.002978820               0.000915309              -0.000769332               0.001249374               0.000480042               0.000000000               0.000000000               0.000000000               0.000000000              -0.000702321               0.003481369               0.000841795              -0.000698540               0.001393291               0.000694751               0.000000000               0.000000000               0.000000000               0.000000000              -0.000363261               0.003895352               0.000771648              -0.000623141               0.001506151               0.000883010               0.000000000               0.000000000               0.000000000               0.000000000              -0.000029757               0.004222067               0.000711871              -0.000538916               0.001586980               0.001048064               0.000000000               0.000000000               0.000000000               0.000000000               0.000310601               0.004476758               0.000656150              -0.000443118               0.001639944               0.001196825               0.000000000               0.000000000               0.000000000               0.000000000               0.000676953               0.004685907               0.000597947              -0.000331881               0.001672580               0.001340700               0.000000000               0.000000000               0.000000000               0.000000000               0.001082763               0.004850045               0.000531875              -0.000200219               0.001683405               0.001483186               0.000000000               0.000000000               0.000000000               0.000000000               0.001537732               0.004957441               0.000451925              -0.000043031               0.001666807               0.001623776               0.000000000               0.000000000               0.000000000               0.000000000               0.002056147               0.005014728               0.000349152               0.000144213               0.001623488               0.001767701               0.000000000               0.000000000               0.000000000               0.000000000               0.002658339               0.005024919               0.000202240               0.000368758               0.001552037               0.001920795               0.000000000               0.000000000               0.000000000               0.000000000               0.003127017               0.005068030               0.000123697               0.000539122               0.001509619               0.002048741               0.000000000               0.000000000               0.000000000               0.000000000              -0.011407432              -0.001068698              -0.000000000              -0.004144197               0.001025159              -0.003119038               0.000000000               0.000000000               0.000000000               0.000000000              -0.007479196              -0.000544595              -0.000000000              -0.002736622               0.000730671              -0.002005952               0.000000000               0.000000000               0.000000000               0.000000000              -0.004426491              -0.000216227               0.000000000              -0.001632905               0.000472223              -0.001160682               0.000000000               0.000000000               0.000000000               0.000000000              -0.002849534               0.000555314              -0.000000000              -0.001137988               0.000564430              -0.000573558               0.000000000               0.000000000               0.000000000               0.000000000              -0.001938409               0.001359595              -0.000000000              -0.000896851               0.000752144              -0.000144708               0.000000000               0.000000000               0.000000000               0.000000000              -0.001360928               0.002083328              -0.000000000              -0.000770762               0.000951356               0.000180594               0.000000000               0.000000000               0.000000000               0.000000000              -0.000943967               0.002710291              -0.000000000              -0.000692772               0.001134345               0.000441573               0.000000000               0.000000000               0.000000000               0.000000000              -0.000592806               0.003240438              -0.000000000              -0.000627355               0.001289254               0.000661898               0.000000000               0.000000000               0.000000000               0.000000000              -0.000258297               0.003685238              -0.000000000              -0.000557515               0.001414239               0.000856724               0.000000000               0.000000000               0.000000000               0.000000000               0.000070464               0.004049448              -0.000000000              -0.000479756               0.001509721               0.001029965               0.000000000               0.000000000               0.000000000               0.000000000               0.000407696               0.004341072              -0.000000000              -0.000389747               0.001576925               0.001187178               0.000000000               0.000000000               0.000000000               0.000000000               0.000776029               0.004581443              -0.000000000              -0.000281669               0.001621022               0.001339353               0.000000000               0.000000000               0.000000000               0.000000000               0.001191376               0.004775953              -0.000000000              -0.000150228               0.001642044               0.001491816               0.000000000               0.000000000               0.000000000               0.000000000               0.001666627               0.004912349               0.000000000               0.000010941               0.001633786               0.001644727               0.000000000               0.000000000               0.000000000               0.000000000               0.002223322               0.004991756               0.000000000               0.000209774               0.001593977               0.001803751               0.000000000               0.000000000               0.000000000               0.000000000               0.002888953               0.005013999              -0.000000000               0.000456603               0.001519115               0.001975718               0.000000000               0.000000000               0.000000000               0.000000000               0.003422913               0.005069037               0.000000000               0.000649956               0.001473010               0.002122966               0.000000000               0.000000000               0.000000000               0.000000000               0.002203998               0.023799982              -0.000000000              -0.002148493               0.008649412               0.006500919               0.000000000               0.000000000               0.000000000               0.000000000               0.002198010               0.018605371              -0.000000000              -0.001501414               0.006702199               0.005200786               0.000000000               0.000000000               0.000000000               0.000000000               0.002893249               0.014379396               0.000000000              -0.000712454               0.005030569               0.004318115               0.000000000               0.000000000               0.000000000               0.000000000               0.002777086               0.012012908              -0.000000000              -0.000460205               0.004157664               0.003697459               0.000000000               0.000000000               0.000000000               0.000000000               0.002418563               0.010530015              -0.000000000              -0.000409290               0.003646400               0.003237110               0.000000000               0.000000000               0.000000000               0.000000000               0.002023079               0.009512938               0.000000000              -0.000430462               0.003314435               0.002883973               0.000000000               0.000000000               0.000000000               0.000000000               0.001649340               0.008758814               0.000000000              -0.000476348               0.003078358               0.002602010               0.000000000               0.000000000               0.000000000               0.000000000               0.001313045               0.008156259               0.000000000              -0.000527139               0.002894439               0.002367300               0.000000000               0.000000000               0.000000000               0.000000000               0.001020669               0.007642578               0.000000000              -0.000572570               0.002738357               0.002165787               0.000000000               0.000000000               0.000000000               0.000000000               0.000775882               0.007174477               0.000000000              -0.000605852               0.002593419               0.001987567               0.000000000               0.000000000               0.000000000               0.000000000               0.000577879               0.006725763              -0.000000000              -0.000624014               0.002449903               0.001825889               0.000000000               0.000000000               0.000000000               0.000000000               0.000415808               0.006280110              -0.000000000              -0.000629084               0.002303044               0.001673960               0.000000000               0.000000000               0.000000000               0.000000000               0.000279305               0.005825667               0.000000000              -0.000623467               0.002149692               0.001526225               0.000000000               0.000000000               0.000000000               0.000000000               0.000160982               0.005346722               0.000000000              -0.000607970               0.001984880               0.001376909               0.000000000               0.000000000               0.000000000               0.000000000               0.000069469               0.004822000               0.000000000              -0.000576698               0.001799550               0.001222852               0.000000000               0.000000000               0.000000000               0.000000000               0.000021341               0.004225869               0.000000000              -0.000520229               0.001582019               0.001061789               0.000000000               0.000000000               0.000000000               0.000000000              -0.000039264               0.003766418              -0.000000000              -0.000485525               0.001417302               0.000931777               0.000000000               0.000000000               0.000000000               0.000000000               0.002282150               0.023309517              -0.001627470              -0.002057879               0.008455721               0.006397842               0.000000000               0.000000000               0.000000000               0.000000000               0.002153637               0.018280966              -0.000814732              -0.001477503               0.006586095               0.005108592               0.000000000               0.000000000               0.000000000               0.000000000               0.002714965               0.014232951              -0.000001897              -0.000761005               0.004997938               0.004236933               0.000000000               0.000000000               0.000000000               0.000000000               0.002542716               0.011952460               0.000339417              -0.000540538               0.004164293               0.003623755               0.000000000               0.000000000               0.000000000               0.000000000               0.002170564               0.010515039               0.000472430              -0.000500417               0.003671784               0.003171366               0.000000000               0.000000000               0.000000000               0.000000000               0.001781855               0.009521697               0.000515207              -0.000522015               0.003347872               0.002825857               0.000000000               0.000000000               0.000000000               0.000000000               0.001426924               0.008775466               0.000518503              -0.000561835               0.003112404               0.002550569               0.000000000               0.000000000               0.000000000               0.000000000               0.001112669               0.008172322               0.000505462              -0.000604288               0.002925509               0.002321221               0.000000000               0.000000000               0.000000000               0.000000000               0.000843130               0.007655264               0.000482352              -0.000640733               0.002765307               0.002124574               0.000000000               0.000000000               0.000000000               0.000000000               0.000621118               0.007186082               0.000451987              -0.000665339               0.002617116               0.001951777               0.000000000               0.000000000               0.000000000               0.000000000               0.000441831               0.006740111               0.000418439              -0.000676826               0.002472290               0.001795464               0.000000000               0.000000000               0.000000000               0.000000000               0.000294298               0.006298331               0.000383410              -0.000676928               0.002325065               0.001648137               0.000000000               0.000000000               0.000000000               0.000000000               0.000174224               0.005847019               0.000344675              -0.000665542               0.002170834               0.001505292               0.000000000               0.000000000               0.000000000               0.000000000               0.000082424               0.005372236               0.000295717              -0.000640619               0.002004267               0.001363648               0.000000000               0.000000000               0.000000000               0.000000000               0.000021514               0.004859409               0.000228384              -0.000599357               0.001819572               0.001220215               0.000000000               0.000000000               0.000000000               0.000000000              -0.000001210               0.004295000               0.000130096              -0.000537328               0.001610762               0.001073434               0.000000000               0.000000000               0.000000000               0.000000000              -0.000047767               0.003870627               0.000081885              -0.000501740               0.001457443               0.000955703               0.000000000               0.000000000               0.000000000               0.000000000               0.002467057               0.021894006              -0.003018828              -0.001811601               0.007901796               0.006090194               0.000000000               0.000000000               0.000000000               0.000000000               0.002001115               0.017354642              -0.001507600              -0.001418909               0.006257793               0.004838883               0.000000000               0.000000000               0.000000000               0.000000000               0.002199655               0.013812899              -0.000012412              -0.000901740               0.004904834               0.004003094               0.000000000               0.000000000               0.000000000               0.000000000               0.001892838               0.011780665               0.000597650              -0.000762767               0.004181105               0.003418338               0.000000000               0.000000000               0.000000000               0.000000000               0.001494790               0.010469306               0.000829019              -0.000748115               0.003739106               0.002990990               0.000000000               0.000000000               0.000000000               0.000000000               0.001132405               0.009535859               0.000898723              -0.000767329               0.003434364               0.002667035               0.000000000               0.000000000               0.000000000               0.000000000               0.000832309               0.008812786               0.000898563              -0.000789481               0.003200726               0.002411245               0.000000000               0.000000000               0.000000000               0.000000000               0.000580948               0.008212342               0.000869202              -0.000808685               0.003006982               0.002198296               0.000000000               0.000000000               0.000000000               0.000000000               0.000373546               0.007687201               0.000825574              -0.000820819               0.002835981               0.002015162               0.000000000               0.000000000               0.000000000               0.000000000               0.000211320               0.007214076               0.000772263              -0.000822513               0.002678839               0.001856326               0.000000000               0.000000000               0.000000000               0.000000000               0.000088655               0.006770375               0.000713872              -0.000813050               0.002527786               0.001714736               0.000000000               0.000000000               0.000000000               0.000000000              -0.000002961               0.006337308               0.000650679              -0.000793272               0.002376839               0.001583567               0.000000000               0.000000000               0.000000000               0.000000000              -0.000063288               0.005898589               0.000578984              -0.000761055               0.002219861               0.001458807               0.000000000               0.000000000               0.000000000               0.000000000              -0.000088441               0.005447142               0.000490202              -0.000714056               0.002053715               0.001339658               0.000000000               0.000000000               0.000000000               0.000000000              -0.000081542               0.004984303               0.000374750              -0.000653614               0.001879289               0.001225675               0.000000000               0.000000000               0.000000000               0.000000000              -0.000047982               0.004512427               0.000213096              -0.000582045               0.001698142               0.001116097               0.000000000               0.000000000               0.000000000               0.000000000              -0.000061605               0.004182271               0.000132154              -0.000545884               0.001576038               0.001030154               0.000000000               0.000000000               0.000000000               0.000000000               0.002648471               0.019738561              -0.004010985              -0.001474142               0.007070835               0.005596693               0.000000000               0.000000000               0.000000000               0.000000000               0.001711028               0.015970099              -0.002008621              -0.001354624               0.005774854               0.004420230               0.000000000               0.000000000               0.000000000               0.000000000               0.001408616               0.013194672              -0.000056213              -0.001121100               0.004771880               0.003650780               0.000000000               0.000000000               0.000000000               0.000000000               0.000949379               0.011527917               0.000701559              -0.001084970               0.004204257               0.003119287               0.000000000               0.000000000               0.000000000               0.000000000               0.000552479               0.010390780               0.000973035              -0.001091665               0.003827447               0.002735782               0.000000000               0.000000000               0.000000000               0.000000000               0.000253169               0.009531930               0.001044901              -0.001096551               0.003542795               0.002446245               0.000000000               0.000000000               0.000000000               0.000000000               0.000035369               0.008836789               0.001034330              -0.001091333               0.003309344               0.002218012               0.000000000               0.000000000               0.000000000               0.000000000              -0.000120907               0.008242740               0.000991573              -0.001075680               0.003106113               0.002030432               0.000000000               0.000000000               0.000000000               0.000000000              -0.000224015               0.007717625               0.000938486              -0.001048706               0.002922085               0.001873378               0.000000000               0.000000000               0.000000000               0.000000000              -0.000286881               0.007240966               0.000878637              -0.001012699               0.002751197               0.001738499               0.000000000               0.000000000               0.000000000               0.000000000              -0.000318597               0.006796548               0.000811641              -0.000969040               0.002588507               0.001619466               0.000000000               0.000000000               0.000000000               0.000000000              -0.000319690               0.006370820               0.000734826              -0.000916234               0.002428997               0.001512762               0.000000000               0.000000000               0.000000000               0.000000000              -0.000290673               0.005953808               0.000643356              -0.000853226               0.002268992               0.001415765               0.000000000               0.000000000               0.000000000               0.000000000              -0.000238233               0.005546751               0.000535294              -0.000782679               0.002109791               0.001327112               0.000000000               0.000000000               0.000000000               0.000000000              -0.000163913               0.005164306               0.000400417              -0.000707004               0.001957086               0.001250082               0.000000000               0.000000000               0.000000000               0.000000000              -0.000081351               0.004821160               0.000221720              -0.000633150               0.001818087               0.001184937               0.000000000               0.000000000               0.000000000               0.000000000              -0.000064147               0.004611357               0.000131959              -0.000600473               0.001737262               0.001136788               0.000000000               0.000000000               0.000000000               0.000000000               0.002694206               0.017121371              -0.004509898              -0.001129845               0.006083681               0.004953836               0.000000000               0.000000000               0.000000000               0.000000000               0.001262635               0.014326018              -0.002289454              -0.001317262               0.005214379               0.003897116               0.000000000               0.000000000               0.000000000               0.000000000               0.000437777               0.012471604              -0.000160329              -0.001394781               0.004622087               0.003227306               0.000000000               0.000000000               0.000000000               0.000000000              -0.000124511               0.011206091               0.000615867              -0.001447449               0.004217809               0.002770360               0.000000000               0.000000000               0.000000000               0.000000000              -0.000468914               0.010244692               0.000875356              -0.001456426               0.003900338               0.002443912               0.000000000               0.000000000               0.000000000               0.000000000              -0.000659862               0.009464844               0.000934221              -0.001430550               0.003631767               0.002201216               0.000000000               0.000000000               0.000000000               0.000000000              -0.000754932               0.008803996               0.000919392              -0.001383596               0.003395834               0.002012239               0.000000000               0.000000000               0.000000000               0.000000000              -0.000787001               0.008223123               0.000880352              -0.001323013               0.003182018               0.001859005               0.000000000               0.000000000               0.000000000               0.000000000              -0.000769751               0.007700986               0.000834582              -0.001251277               0.002984062               0.001732785               0.000000000               0.000000000               0.000000000               0.000000000              -0.000718238               0.007222174               0.000782800              -0.001172108               0.002798070               0.001625962               0.000000000               0.000000000               0.000000000               0.000000000              -0.000641892               0.006774706               0.000722816              -0.001087545               0.002620728               0.001533183               0.000000000               0.000000000               0.000000000               0.000000000              -0.000542071               0.006352234               0.000649315              -0.000997303               0.002449825               0.001452521               0.000000000               0.000000000               0.000000000               0.000000000              -0.000422507               0.005958935               0.000557846              -0.000903305               0.002287393               0.001384088               0.000000000               0.000000000               0.000000000               0.000000000              -0.000297885               0.005604888               0.000450701              -0.000812316               0.002139049               0.001326733               0.000000000               0.000000000               0.000000000               0.000000000              -0.000180030               0.005305176               0.000323978              -0.000730656               0.002011926               0.001281270               0.000000000               0.000000000               0.000000000               0.000000000              -0.000082261               0.005079029               0.000171467              -0.000665725               0.001914901               0.001249176               0.000000000               0.000000000               0.000000000               0.000000000              -0.000050591               0.004969972               0.000095231              -0.000640217               0.001870046               0.001229830               0.000000000               0.000000000               0.000000000               0.000000000               0.002473106               0.014309074              -0.004530292              -0.000861222               0.005056716               0.004195495               0.000000000               0.000000000               0.000000000               0.000000000               0.000655536               0.012595071              -0.002387492              -0.001328556               0.004641167               0.003312611               0.000000000               0.000000000               0.000000000               0.000000000              -0.000598344               0.011687697              -0.000358208              -0.001685337               0.004457639               0.002772302               0.000000000               0.000000000               0.000000000               0.000000000              -0.001169593               0.010793748               0.000339276              -0.001787811               0.004193817               0.002406006               0.000000000               0.000000000               0.000000000               0.000000000              -0.001393744               0.009990122               0.000567193              -0.001771415               0.003920479               0.002149064               0.000000000               0.000000000               0.000000000               0.000000000              -0.001434170               0.009285651               0.000624989              -0.001698516               0.003661358               0.001962842               0.000000000               0.000000000               0.000000000               0.000000000              -0.001383282               0.008660059               0.000626268              -0.001601234               0.003420402               0.001819168               0.000000000               0.000000000               0.000000000               0.000000000              -0.001282944               0.008097637               0.000608154              -0.001493305               0.003196954               0.001703649               0.000000000               0.000000000               0.000000000               0.000000000              -0.001151540               0.007582281               0.000584607              -0.001379609               0.002987271               0.001607662               0.000000000               0.000000000               0.000000000               0.000000000              -0.000992773               0.007104856               0.000553523              -0.001260394               0.002788393               0.001527999               0.000000000               0.000000000               0.000000000               0.000000000              -0.000813086               0.006655212               0.000511632              -0.001136806               0.002597317               0.001460511               0.000000000               0.000000000               0.000000000               0.000000000              -0.000625644               0.006239382               0.000455208              -0.001014537               0.002417952               0.001403415               0.000000000               0.000000000               0.000000000               0.000000000              -0.000442877               0.005873172               0.000380755              -0.000900223               0.002257779               0.001357556               0.000000000               0.000000000               0.000000000               0.000000000              -0.000280822               0.005569845               0.000293344              -0.000801537               0.002123775               0.001322238               0.000000000               0.000000000               0.000000000               0.000000000              -0.000150920               0.005338561               0.000194643              -0.000723913               0.002020807               0.001296894               0.000000000               0.000000000               0.000000000               0.000000000              -0.000061139               0.005187552               0.000092823              -0.000671370               0.001952956               0.001281587               0.000000000               0.000000000               0.000000000               0.000000000              -0.000032861               0.005126322               0.000047101              -0.000653112               0.001926461               0.001273349               0.000000000               0.000000000               0.000000000               0.000000000               0.001920893               0.011518416              -0.004160912              -0.000719469               0.004079256               0.003359786               0.000000000               0.000000000               0.000000000               0.000000000              -0.000078489               0.010899753              -0.002361658              -0.001391901               0.004097181               0.002705280               0.000000000               0.000000000               0.000000000               0.000000000              -0.001583872               0.010864013              -0.000655691              -0.001951949               0.004271951               0.002320002               0.000000000               0.000000000               0.000000000               0.000000000              -0.002052073               0.010284445              -0.000081091              -0.002055078               0.004113140               0.002058062               0.000000000               0.000000000               0.000000000               0.000000000              -0.002100742               0.009619578               0.000128341              -0.001990221               0.003869901               0.001879680               0.000000000               0.000000000               0.000000000               0.000000000              -0.001971762               0.008979823               0.000209975              -0.001861884               0.003613872               0.001751988               0.000000000               0.000000000               0.000000000               0.000000000              -0.001777927               0.008387274               0.000248517              -0.001715128               0.003367439               0.001652311               0.000000000               0.000000000               0.000000000               0.000000000              -0.001557525               0.007843535               0.000269467              -0.001564510               0.003135989               0.001571479               0.000000000               0.000000000               0.000000000               0.000000000              -0.001324272               0.007343627               0.000278233              -0.001414552               0.002919368               0.001504816               0.000000000               0.000000000               0.000000000               0.000000000              -0.001078809               0.006872469               0.000273512              -0.001263609               0.002712003               0.001448394               0.000000000               0.000000000               0.000000000               0.000000000              -0.000826405               0.006432505               0.000255463              -0.001113962               0.002515467               0.001401505               0.000000000               0.000000000               0.000000000               0.000000000              -0.000588678               0.006042121               0.000225065              -0.000976017               0.002339359               0.001363342               0.000000000               0.000000000               0.000000000               0.000000000              -0.000381767               0.005717928               0.000180149              -0.000857902               0.002191924               0.001334023               0.000000000               0.000000000               0.000000000               0.000000000              -0.000218937               0.005465511               0.000126584              -0.000765288               0.002076915               0.001311626               0.000000000               0.000000000               0.000000000               0.000000000              -0.000105374               0.005283840               0.000072210              -0.000699994               0.001994594               0.001294600               0.000000000               0.000000000               0.000000000               0.000000000              -0.000037250               0.005167394               0.000027240              -0.000659891               0.001942411               0.001282520               0.000000000               0.000000000               0.000000000               0.000000000              -0.000023207               0.005112962               0.000013884              -0.000647821               0.001920244               0.001272423               0.000000000               0.000000000               0.000000000               0.000000000               0.001068180               0.008930558              -0.003499662              -0.000715754               0.003215406               0.002499653               0.000000000               0.000000000               0.000000000               0.000000000              -0.000898680               0.009338124              -0.002257243              -0.001504268               0.003614099               0.002109831               0.000000000               0.000000000               0.000000000               0.000000000              -0.002426219               0.010019006              -0.001037874              -0.002162203               0.004060369               0.001898167               0.000000000               0.000000000               0.000000000               0.000000000              -0.002692950               0.009691554              -0.000574153              -0.002221295               0.003970917               0.001749622               0.000000000               0.000000000               0.000000000               0.000000000              -0.002542029               0.009148988              -0.000351434              -0.002096879               0.003748592               0.001651713               0.000000000               0.000000000               0.000000000               0.000000000              -0.002255020               0.008574459              -0.000224288              -0.001917435               0.003497269               0.001579834               0.000000000               0.000000000               0.000000000               0.000000000              -0.001937688               0.008019626              -0.000136023              -0.001729082               0.003249543               0.001520460               0.000000000               0.000000000               0.000000000               0.000000000              -0.001616477               0.007501459              -0.000067790              -0.001543857               0.003015080               0.001471223               0.000000000               0.000000000               0.000000000               0.000000000              -0.001298885               0.007019621              -0.000019121              -0.001364531               0.002794694               0.001430163               0.000000000               0.000000000               0.000000000               0.000000000              -0.000992046               0.006565880               0.000007148              -0.001192749               0.002586188               0.001393439               0.000000000               0.000000000               0.000000000               0.000000000              -0.000705421               0.006156453               0.000020707              -0.001034087               0.002396826               0.001362739               0.000000000               0.000000000               0.000000000               0.000000000              -0.000460241               0.005811160               0.000027047              -0.000898983               0.002236695               0.001337712               0.000000000               0.000000000               0.000000000               0.000000000              -0.000270601               0.005537453               0.000022990              -0.000793655               0.002110351               0.001316696               0.000000000               0.000000000               0.000000000               0.000000000              -0.000137665               0.005335350               0.000012444              -0.000718541               0.002017946               0.001299404               0.000000000               0.000000000               0.000000000               0.000000000              -0.000055252               0.005194623               0.000003511              -0.000670046               0.001954872               0.001284827               0.000000000               0.000000000               0.000000000               0.000000000              -0.000015601               0.005102218               0.000000255              -0.000643626               0.001915264               0.001271638               0.000000000               0.000000000               0.000000000               0.000000000              -0.000015994               0.005055234               0.000005562              -0.000637901               0.001897695               0.001259794               0.000000000               0.000000000               0.000000000               0.000000000               0.000030298               0.006738371              -0.002669600              -0.000830935               0.002523079               0.001692144               0.000000000               0.000000000               0.000000000               0.000000000              -0.001696136               0.007943763              -0.002126459              -0.001629018               0.003190900               0.001561882               0.000000000               0.000000000               0.000000000               0.000000000              -0.003067957               0.009195170              -0.001485216              -0.002299875               0.003831651               0.001531776               0.000000000               0.000000000               0.000000000               0.000000000              -0.003117398               0.009129699              -0.001093751              -0.002310231               0.003813280               0.001503049               0.000000000               0.000000000               0.000000000               0.000000000              -0.002802676               0.008729779              -0.000834424              -0.002142221               0.003623971               0.001481750               0.000000000               0.000000000               0.000000000               0.000000000              -0.002392206               0.008239293              -0.000651331              -0.001926984               0.003388732               0.001461747               0.000000000               0.000000000               0.000000000               0.000000000              -0.001982008               0.007739910              -0.000511746              -0.001710738               0.003150190               0.001439452               0.000000000               0.000000000               0.000000000               0.000000000              -0.001586455               0.007263606              -0.000396982              -0.001502868               0.002922134               0.001419266               0.000000000               0.000000000               0.000000000               0.000000000              -0.001206152               0.006807638              -0.000304814              -0.001303259               0.002703610               0.001400351               0.000000000               0.000000000               0.000000000               0.000000000              -0.000856131               0.006373492              -0.000235014              -0.001117733               0.002497054               0.001379321               0.000000000               0.000000000               0.000000000               0.000000000              -0.000554316               0.005992392              -0.000178265              -0.000956915               0.002316416               0.001359501               0.000000000               0.000000000               0.000000000               0.000000000              -0.000320290               0.005679092              -0.000127475              -0.000829993               0.002169676               0.001339683               0.000000000               0.000000000               0.000000000               0.000000000              -0.000157482               0.005435831              -0.000087035              -0.000738533               0.002058103               0.001319570               0.000000000               0.000000000               0.000000000               0.000000000              -0.000056612               0.005256642              -0.000054211              -0.000678308               0.001978299               0.001299991               0.000000000               0.000000000               0.000000000               0.000000000              -0.000007148               0.005134347              -0.000026049              -0.000644472               0.001926256               0.001281784               0.000000000               0.000000000               0.000000000               0.000000000               0.000003697               0.005056937              -0.000004802              -0.000630729               0.001895872               0.001265143               0.000000000               0.000000000               0.000000000               0.000000000              -0.000001551               0.005024558               0.000005116              -0.000628650               0.001884386               0.001255736               0.000000000               0.000000000               0.000000000               0.000000000              -0.001194260               0.004700942              -0.001786934              -0.001035464               0.001912119               0.000876655               0.000000000               0.000000000               0.000000000               0.000000000              -0.002351759               0.006350854              -0.001974675              -0.001675763               0.002675517               0.000999754               0.000000000               0.000000000               0.000000000               0.000000000              -0.003424342               0.008008331              -0.001952691              -0.002285165               0.003431138               0.001145973               0.000000000               0.000000000               0.000000000               0.000000000              -0.003361960               0.008312934              -0.001650276              -0.002299847               0.003537566               0.001237719               0.000000000               0.000000000               0.000000000               0.000000000              -0.002992603               0.008169106              -0.001361741              -0.002143359               0.003437461               0.001294102               0.000000000               0.000000000               0.000000000               0.000000000              -0.002542597               0.007860308              -0.001123435              -0.001936008               0.003265412               0.001329404               0.000000000               0.000000000               0.000000000               0.000000000              -0.002097696               0.007497101              -0.000931744              -0.001723770               0.003073598               0.001349829               0.000000000               0.000000000               0.000000000               0.000000000              -0.001682011               0.007125518              -0.000771801              -0.001521440               0.002882296               0.001360855               0.000000000               0.000000000               0.000000000               0.000000000              -0.001290488               0.006755165              -0.000635202              -0.001328325               0.002694474               0.001366149               0.000000000               0.000000000               0.000000000               0.000000000              -0.000928482               0.006388457              -0.000513927              -0.001146735               0.002511709               0.001364974               0.000000000               0.000000000               0.000000000               0.000000000              -0.000612606               0.006043435              -0.000404005              -0.000985154               0.002342843               0.001357689               0.000000000               0.000000000               0.000000000               0.000000000              -0.000358049               0.005742738              -0.000304501              -0.000852109               0.002198263               0.001346155               0.000000000               0.000000000               0.000000000               0.000000000              -0.000174713               0.005494412              -0.000218388              -0.000752317               0.002082225               0.001329907               0.000000000               0.000000000               0.000000000               0.000000000              -0.000058602               0.005298988              -0.000140647              -0.000684347               0.001994427               0.001310080               0.000000000               0.000000000               0.000000000               0.000000000               0.000001275               0.005157274              -0.000072486              -0.000644180               0.001933801               0.001289621               0.000000000               0.000000000               0.000000000               0.000000000               0.000016487               0.005061245              -0.000024271              -0.000626471               0.001895889               0.001269417               0.000000000               0.000000000               0.000000000               0.000000000               0.000013939               0.005025707              -0.000005910              -0.000622985               0.001882880               0.001259896               0.000000000               0.000000000               0.000000000               0.000000000              -0.002762318               0.002860630              -0.000907173              -0.001393445               0.001418014               0.000024569               0.000000000               0.000000000               0.000000000               0.000000000              -0.003086834               0.004758307              -0.001745760              -0.001752348               0.002170202               0.000417854               0.000000000               0.000000000               0.000000000               0.000000000              -0.003677852               0.006633991              -0.002317086              -0.002208439               0.002947454               0.000739015               0.000000000               0.000000000               0.000000000               0.000000000              -0.003515012               0.007286645              -0.002175696              -0.002228955               0.003171842               0.000942887               0.000000000               0.000000000               0.000000000               0.000000000              -0.003126938               0.007436692              -0.001901192              -0.002102184               0.003179600               0.001077416               0.000000000               0.000000000               0.000000000               0.000000000              -0.002669728               0.007358370              -0.001632364              -0.001920940               0.003093078               0.001172138               0.000000000               0.000000000               0.000000000               0.000000000              -0.002213864               0.007169669              -0.001397259              -0.001726404               0.002965333               0.001238930               0.000000000               0.000000000               0.000000000               0.000000000              -0.001788168               0.006930077              -0.001197438              -0.001536819               0.002822275               0.001285456               0.000000000               0.000000000               0.000000000               0.000000000              -0.001392734               0.006668871              -0.001022524              -0.001355881               0.002674895               0.001319014               0.000000000               0.000000000               0.000000000               0.000000000              -0.001023982               0.006397801              -0.000859031              -0.001183716               0.002527151               0.001343435               0.000000000               0.000000000               0.000000000               0.000000000              -0.000689656               0.006114445              -0.000705863              -0.001022924               0.002379103               0.001356178               0.000000000               0.000000000               0.000000000               0.000000000              -0.000399105               0.005839627              -0.000562707              -0.000879616               0.002239728               0.001360112               0.000000000               0.000000000               0.000000000               0.000000000              -0.000170530               0.005591432              -0.000428651              -0.000762876               0.002118084               0.001355208               0.000000000               0.000000000               0.000000000               0.000000000              -0.000013651               0.005380214              -0.000302642              -0.000677644               0.002019268               0.001341624               0.000000000               0.000000000               0.000000000               0.000000000               0.000074037               0.005211031              -0.000183711              -0.000623614               0.001944864               0.001321251               0.000000000               0.000000000               0.000000000               0.000000000               0.000097430               0.005088974              -0.000081976              -0.000599584               0.001896169               0.001296585               0.000000000               0.000000000               0.000000000               0.000000000               0.000084752               0.005036021              -0.000033679              -0.000597719               0.001877897               0.001280177               0.000000000               0.000000000               0.000000000               0.000000000              -0.004578943               0.001356549              -0.000106744              -0.001886669               0.001081066              -0.000805604               0.000000000               0.000000000               0.000000000               0.000000000              -0.003956855               0.003258613              -0.001420619              -0.001891143               0.001716573              -0.000174570               0.000000000               0.000000000               0.000000000               0.000000000              -0.003870691               0.005089493              -0.002463175              -0.002087691               0.002392377               0.000304685               0.000000000               0.000000000               0.000000000               0.000000000              -0.003521469               0.005981268              -0.002522175              -0.002068205               0.002683137               0.000614932               0.000000000               0.000000000               0.000000000               0.000000000              -0.003098186               0.006398183              -0.002317512              -0.001961589               0.002786568               0.000824980               0.000000000               0.000000000               0.000000000               0.000000000              -0.002645320               0.006557566              -0.002059701              -0.001811687               0.002789729               0.000978042               0.000000000               0.000000000               0.000000000               0.000000000              -0.002195849               0.006567939              -0.001809035              -0.001644432               0.002737435               0.001093002               0.000000000               0.000000000               0.000000000               0.000000000              -0.001771354               0.006494272              -0.001587249              -0.001476039               0.002656748               0.001180710               0.000000000               0.000000000               0.000000000               0.000000000              -0.001378033               0.006373135              -0.001390675              -0.001313402               0.002562157               0.001248756               0.000000000               0.000000000               0.000000000               0.000000000              -0.001007865               0.006220365              -0.001206327              -0.001155493               0.002458598               0.001303106               0.000000000               0.000000000               0.000000000               0.000000000              -0.000661017               0.006030726              -0.001030634              -0.001001720               0.002344129               0.001342409               0.000000000               0.000000000               0.000000000               0.000000000              -0.000347391               0.005819200              -0.000859078              -0.000857670               0.002225604               0.001367934               0.000000000               0.000000000               0.000000000               0.000000000              -0.000076429               0.005610817              -0.000688226              -0.000730011               0.002113591               0.001383579               0.000000000               0.000000000               0.000000000               0.000000000               0.000129783               0.005415465              -0.000515650              -0.000628263               0.002014558               0.001386295               0.000000000               0.000000000               0.000000000               0.000000000               0.000256841               0.005242276              -0.000340361              -0.000558968               0.001933730               0.001374763               0.000000000               0.000000000               0.000000000               0.000000000               0.000299680               0.005105798              -0.000167017              -0.000525843               0.001877197               0.001351353               0.000000000               0.000000000               0.000000000               0.000000000               0.000284310               0.005038858              -0.000077354              -0.000523240               0.001854016               0.001330776               0.000000000               0.000000000               0.000000000               0.000000000              -0.006522392               0.000257300               0.000498614              -0.002478057               0.000911779              -0.001566278               0.000000000               0.000000000               0.000000000               0.000000000              -0.004913158               0.001934465              -0.001048256              -0.002084239               0.001339559              -0.000744681               0.000000000               0.000000000               0.000000000               0.000000000              -0.004032823               0.003506282              -0.002363963              -0.001950590               0.001818944              -0.000131646               0.000000000               0.000000000               0.000000000               0.000000000              -0.003412195               0.004503443              -0.002600384              -0.001842500               0.002115298               0.000272798               0.000000000               0.000000000               0.000000000               0.000000000              -0.002911767               0.005122101              -0.002495375              -0.001732172               0.002284739               0.000552567               0.000000000               0.000000000               0.000000000               0.000000000              -0.002457752               0.005496026              -0.002286265              -0.001608657               0.002368209               0.000759551               0.000000000               0.000000000               0.000000000               0.000000000              -0.002024943               0.005711488              -0.002054896              -0.001473287               0.002394905               0.000921618               0.000000000               0.000000000               0.000000000               0.000000000              -0.001612716               0.005823763              -0.001835380              -0.001332737               0.002385480               0.001052744               0.000000000               0.000000000               0.000000000               0.000000000              -0.001228200               0.005859273              -0.001637831              -0.001192982               0.002350732               0.001157750               0.000000000               0.000000000               0.000000000               0.000000000              -0.000865105               0.005833025              -0.001457103              -0.001053540               0.002295502               0.001241962               0.000000000               0.000000000               0.000000000               0.000000000              -0.000514649               0.005759508              -0.001282927              -0.000912930               0.002224127               0.001311197               0.000000000               0.000000000               0.000000000               0.000000000              -0.000178375               0.005650080              -0.001108003              -0.000773149               0.002141057               0.001367908               0.000000000               0.000000000               0.000000000               0.000000000               0.000130474               0.005517505              -0.000924516              -0.000640759               0.002052736               0.001411977               0.000000000               0.000000000               0.000000000               0.000000000               0.000393856               0.005374933              -0.000723480              -0.000524170               0.001966349               0.001442180               0.000000000               0.000000000               0.000000000               0.000000000               0.000592944               0.005235146              -0.000503946              -0.000432038               0.001889044               0.001457005               0.000000000               0.000000000               0.000000000               0.000000000               0.000705751               0.005109821              -0.000261879              -0.000374070               0.001827947               0.001453877               0.000000000               0.000000000               0.000000000               0.000000000               0.000731184               0.005046315              -0.000133251              -0.000356595               0.001800953               0.001444358               0.000000000               0.000000000               0.000000000               0.000000000              -0.008396541              -0.000454542               0.000811580              -0.003091883               0.000879107              -0.002212775               0.000000000               0.000000000               0.000000000               0.000000000              -0.005868103               0.000857364              -0.000688363              -0.002307707               0.001055016              -0.001252691               0.000000000               0.000000000               0.000000000               0.000000000              -0.004177343               0.002033072              -0.002021381              -0.001820635               0.001284559              -0.000536076               0.000000000               0.000000000               0.000000000               0.000000000              -0.003235642               0.003019213              -0.002356294              -0.001590765               0.001536648              -0.000054117               0.000000000               0.000000000               0.000000000               0.000000000              -0.002616406               0.003760788              -0.002342428              -0.001451248               0.001737332               0.000286083               0.000000000               0.000000000               0.000000000               0.000000000              -0.002139026               0.004301610              -0.002201989              -0.001339834               0.001880466               0.000540632               0.000000000               0.000000000               0.000000000               0.000000000              -0.001721382               0.004694459              -0.002017307              -0.001232324               0.001975578               0.000743254               0.000000000               0.000000000               0.000000000               0.000000000              -0.001329430               0.004977107              -0.001828002              -0.001120673               0.002032576               0.000911903               0.000000000               0.000000000               0.000000000               0.000000000              -0.000959926               0.005167758              -0.001652201              -0.001005940               0.002057882               0.001051941               0.000000000               0.000000000               0.000000000               0.000000000              -0.000604741               0.005277097              -0.001494360              -0.000886413               0.002054486               0.001168072               0.000000000               0.000000000               0.000000000               0.000000000              -0.000253490               0.005329648              -0.001346301              -0.000761263               0.002030286               0.001269022               0.000000000               0.000000000               0.000000000               0.000000000               0.000100036               0.005339295              -0.001193891              -0.000629898               0.001989713               0.001359815               0.000000000               0.000000000               0.000000000               0.000000000               0.000446847               0.005310376              -0.001024555              -0.000496229               0.001935517               0.001439288               0.000000000               0.000000000               0.000000000               0.000000000               0.000778135               0.005251472              -0.000831452              -0.000364633               0.001872017               0.001507384               0.000000000               0.000000000               0.000000000               0.000000000               0.001082965               0.005173279              -0.000604849              -0.000240548               0.001804592               0.001564044               0.000000000               0.000000000               0.000000000               0.000000000               0.001336823               0.005087833              -0.000326716              -0.000134670               0.001740817               0.001606147               0.000000000               0.000000000               0.000000000               0.000000000               0.001475155               0.005053660              -0.000178709              -0.000078525               0.001710711               0.001632187               0.000000000               0.000000000               0.000000000               0.000000000              -0.009974981              -0.000849286               0.000791589              -0.003634455               0.000928383              -0.002706072               0.000000000               0.000000000               0.000000000               0.000000000              -0.006700434               0.000075979              -0.000391063              -0.002522158               0.000866039              -0.001656118               0.000000000               0.000000000               0.000000000               0.000000000              -0.004303656               0.000835327              -0.001473251              -0.001718285               0.000851197              -0.000867088               0.000000000               0.000000000               0.000000000               0.000000000              -0.003046513               0.001737584              -0.001794503              -0.001359638               0.001032400              -0.000327239               0.000000000               0.000000000               0.000000000               0.000000000              -0.002291837               0.002534114              -0.001829540              -0.001176201               0.001236762               0.000060561               0.000000000               0.000000000               0.000000000               0.000000000              -0.001772365               0.003183306              -0.001752469              -0.001062548               0.001415273               0.000352725               0.000000000               0.000000000               0.000000000               0.000000000              -0.001357725               0.003704967              -0.001629395              -0.000972266               0.001559065               0.000586799               0.000000000               0.000000000               0.000000000               0.000000000              -0.000986526               0.004122846              -0.001491204              -0.000885301               0.001669368               0.000784067               0.000000000               0.000000000               0.000000000               0.000000000              -0.000635525               0.004447010              -0.001359813              -0.000794197               0.001747054               0.000952857               0.000000000               0.000000000               0.000000000               0.000000000              -0.000290668               0.004681000              -0.001245369              -0.000694124               0.001791692               0.001097568               0.000000000               0.000000000               0.000000000               0.000000000               0.000058048               0.004848057              -0.001138592              -0.000584238               0.001810748               0.001226510               0.000000000               0.000000000               0.000000000               0.000000000               0.000420297               0.004974765              -0.001026306              -0.000464234               0.001812983               0.001348749               0.000000000               0.000000000               0.000000000               0.000000000               0.000801753               0.005056720              -0.000899070              -0.000331432               0.001796034               0.001464601               0.000000000               0.000000000               0.000000000               0.000000000               0.001203059               0.005088300              -0.000750077              -0.000184890               0.001757713               0.001572823               0.000000000               0.000000000               0.000000000               0.000000000               0.001625030               0.005083532              -0.000564733              -0.000026056               0.001703179               0.001677123               0.000000000               0.000000000               0.000000000               0.000000000               0.002065145               0.005051132              -0.000315745               0.000143036               0.001636015               0.001779051               0.000000000               0.000000000               0.000000000               0.000000000               0.002373747               0.005058791              -0.000183342               0.000257804               0.001600312               0.001858116               0.000000000               0.000000000               0.000000000               0.000000000              -0.011034465              -0.001023941               0.000482223              -0.004009929               0.000995323              -0.003014607               0.000000000               0.000000000               0.000000000               0.000000000              -0.007274440              -0.000391019              -0.000169481              -0.002679036               0.000762667              -0.001916369               0.000000000               0.000000000               0.000000000               0.000000000              -0.004394093               0.000053986              -0.000776621              -0.001654532               0.000569502              -0.001085030               0.000000000               0.000000000               0.000000000               0.000000000              -0.002902826               0.000864360              -0.000973163              -0.001196603               0.000686983              -0.000509621               0.000000000               0.000000000               0.000000000               0.000000000              -0.002036275               0.001671023              -0.001007935              -0.000972479               0.000881161              -0.000091318               0.000000000               0.000000000               0.000000000               0.000000000              -0.001475304               0.002378263              -0.000976310              -0.000850520               0.001076253               0.000225733               0.000000000               0.000000000               0.000000000               0.000000000              -0.001058615               0.002978820              -0.000915309              -0.000769332               0.001249374               0.000480042               0.000000000               0.000000000               0.000000000               0.000000000              -0.000702321               0.003481369              -0.000841795              -0.000698540               0.001393291               0.000694751               0.000000000               0.000000000               0.000000000               0.000000000              -0.000363261               0.003895352              -0.000771648              -0.000623141               0.001506151               0.000883010               0.000000000               0.000000000               0.000000000               0.000000000              -0.000029757               0.004222067              -0.000711871              -0.000538916               0.001586980               0.001048064               0.000000000               0.000000000               0.000000000               0.000000000               0.000310601               0.004476758              -0.000656150              -0.000443118               0.001639944               0.001196825               0.000000000               0.000000000               0.000000000               0.000000000               0.000676953               0.004685907              -0.000597947              -0.000331881               0.001672580               0.001340700               0.000000000               0.000000000               0.000000000               0.000000000               0.001082763               0.004850045              -0.000531875              -0.000200219               0.001683405               0.001483186               0.000000000               0.000000000               0.000000000               0.000000000               0.001537732               0.004957441              -0.000451925              -0.000043031               0.001666807               0.001623776               0.000000000               0.000000000               0.000000000               0.000000000               0.002056147               0.005014728              -0.000349152               0.000144213               0.001623488               0.001767701               0.000000000               0.000000000               0.000000000               0.000000000               0.002658339               0.005024919              -0.000202240               0.000368758               0.001552037               0.001920795               0.000000000               0.000000000               0.000000000               0.000000000               0.003127017               0.005068030              -0.000123697               0.000539122               0.001509619               0.002048741               0.000000000               0.000000000               0.000000000               0.000000000               0.000000000               0.000000000               0.000000000               0.000000000               0.000000000               0.000000000               0.000000000               0.000000000               0.000000000               0.000000000               0.000000000               0.000000000               0.000000000               0.000000000               0.000000000               0.000000000               0.000000000               0.000000000               0.000000000               0.000000000               0.000000000               0.000000000               0.000000000               0.000000000               0.000000000               0.000000000               0.000000000               0.000000000               0.000000000               0.000000000               0.000000000               0.000000000               0.000000000               0.000000000               0.000000000               0.000000000               0.000000000               0.000000000               0.000000000               0.000000000               0.000000000               0.000000000               0.000000000               0.000000000               0.000000000               0.000000000               0.000000000               0.000000000               0.000000000               0.000000000               0.000000000               0.000000000               0.000000000               0.000000000               0.000000000               0.000000000               0.000000000               0.000000000               0.000000000               0.000000000               0.000000000               0.000000000               0.000000000               0.000000000               0.000000000               0.000000000               0.000000000               0.000000000               0.000000000               0.000000000               0.000000000               0.000000000               0.000000000               0.000000000               0.000000000               0.000000000               0.000000000               0.000000000               0.000000000               0.000000000               0.000000000               0.000000000               0.000000000               0.000000000               0.000000000               0.000000000               0.000000000               0.000000000               0.000000000               0.000000000               0.000000000               0.000000000               0.000000000               0.000000000               0.000000000               0.000000000               0.000000000               0.000000000               0.000000000               0.000000000               0.000000000               0.000000000               0.000000000               0.000000000               0.000000000               0.000000000               0.000000000               0.000000000               0.000000000               0.000000000               0.000000000               0.000000000               0.000000000               0.000000000               0.000000000               0.000000000               0.000000000               0.000000000               0.000000000               0.000000000               0.000000000               0.000000000               0.000000000               0.000000000               0.000000000               0.000000000               0.000000000               0.000000000               0.000000000               0.000000000               0.000000000               0.000000000               0.000000000               0.000000000               0.000000000               0.000000000               0.000000000               0.000000000               0.000000000               0.000000000               0.000000000               0.000000000               0.000000000               0.000000000               0.000000000               0.000000000               0.000000000               0.000000000               0.000000000               0.000000000               0.000000000               0.000000000               0.000000000               0.000000000               0.000000000               0.000000000               0.000000000               0.000000000               0.000000000               0.000000000               0.000000000               0.000000000               0.000000000               0.000000000               0.000000000               0.000000000               0.000000000               0.000000000               0.000000000               0.000000000               0.000000000               0.000000000               0.000000000               0.000000000               0.000000000               0.000000000               0.000000000               0.000000000               0.000000000               0.000000000               0.000000000               0.000000000               0.000000000               0.000000000               0.000000000               0.000000000               0.000000000               0.000000000               0.000000000               0.000000000               0.000000000               0.000000000               0.000000000               0.000000000               0.000000000               0.000000000               0.000000000               0.000000000               0.000000000               0.000000000               0.000000000               0.000000000               0.000000000               0.000000000               0.000000000               0.000000000               0.000000000               0.000000000               0.000000000               0.000000000               0.000000000               0.000000000               0.000000000               0.000000000               0.000000000               0.000000000               0.000000000               0.000000000               0.000000000               0.000000000               0.000000000               0.000000000               0.000000000               0.000000000               0.000000000               0.000000000               0.000000000               0.000000000               0.000000000               0.000000000               0.000000000               0.000000000               0.000000000               0.000000000               0.000000000               0.000000000               0.000000000               0.000000000               0.000000000               0.000000000               0.000000000               0.000000000               0.000000000               0.000000000               0.000000000               0.000000000               0.000000000               0.000000000               0.000000000               0.000000000               0.000000000               0.000000000               0.000000000               0.000000000               0.000000000               0.000000000               0.000000000               0.000000000               0.000000000               0.000000000               0.000000000               0.000000000               0.000000000               0.000000000               0.000000000               0.000000000               0.000000000               0.000000000               0.000000000               0.000000000               0.000000000               0.000000000               0.000000000               0.000000000               0.000000000               0.000000000               0.000000000               0.000000000               0.000000000               0.000000000               0.000000000               0.000000000               0.000000000               0.000000000               0.000000000               0.000000000               0.000000000               0.000000000               0.000000000               0.000000000               0.000000000               0.000000000               0.000000000               0.000000000               0.000000000               0.000000000               0.000000000               0.000000000               0.000000000               0.000000000               0.000000000               0.000000000               0.000000000               0.000000000               0.000000000               0.000000000               0.000000000               0.000000000               0.000000000               0.000000000               0.000000000               0.000000000               0.000000000               0.000000000               0.000000000               0.000000000               0.000000000               0.000000000               0.000000000               0.000000000               0.000000000               0.000000000               0.000000000               0.000000000               0.000000000               0.000000000               0.000000000               0.000000000               0.000000000               0.000000000               0.000000000               0.000000000               0.000000000               0.000000000               0.000000000               0.000000000               0.000000000               0.000000000               0.000000000               0.000000000               0.002282150               0.023309517               0.001627470              -0.002057879               0.008455721               0.006397842               0.000000000               0.000000000               0.000000000               0.000000000               0.002153637               0.018280966               0.000814732              -0.001477503               0.006586095               0.005108592               0.000000000               0.000000000               0.000000000               0.000000000               0.002714965               0.014232951               0.000001897              -0.000761005               0.004997938               0.004236933               0.000000000               0.000000000               0.000000000               0.000000000               0.002542716               0.011952460              -0.000339417              -0.000540538               0.004164293               0.003623755               0.000000000               0.000000000               0.000000000               0.000000000               0.002170564               0.010515039              -0.000472430              -0.000500417               0.003671784               0.003171366               0.000000000               0.000000000               0.000000000               0.000000000               0.001781855               0.009521697              -0.000515207              -0.000522015               0.003347872               0.002825857               0.000000000               0.000000000               0.000000000               0.000000000               0.001426924               0.008775466              -0.000518503              -0.000561835               0.003112404               0.002550569               0.000000000               0.000000000               0.000000000               0.000000000               0.001112669               0.008172322              -0.000505462              -0.000604288               0.002925509               0.002321221               0.000000000               0.000000000               0.000000000               0.000000000               0.000843130               0.007655264              -0.000482352              -0.000640733               0.002765307               0.002124574               0.000000000               0.000000000               0.000000000               0.000000000               0.000621118               0.007186082              -0.000451987              -0.000665339               0.002617116               0.001951777               0.000000000               0.000000000               0.000000000               0.000000000               0.000441831               0.006740111              -0.000418439              -0.000676826               0.002472290               0.001795464               0.000000000               0.000000000               0.000000000               0.000000000               0.000294298               0.006298331              -0.000383410              -0.000676928               0.002325065               0.001648137               0.000000000               0.000000000               0.000000000               0.000000000               0.000174224               0.005847019              -0.000344675              -0.000665542               0.002170834               0.001505292               0.000000000               0.000000000               0.000000000               0.000000000               0.000082424               0.005372236              -0.000295717              -0.000640619               0.002004267               0.001363648               0.000000000               0.000000000               0.000000000               0.000000000               0.000021514               0.004859409              -0.000228384              -0.000599357               0.001819572               0.001220215               0.000000000               0.000000000               0.000000000               0.000000000              -0.000001210               0.004295000              -0.000130096              -0.000537328               0.001610762               0.001073434               0.000000000               0.000000000               0.000000000               0.000000000              -0.000047767               0.003870627              -0.000081885              -0.000501740               0.001457443               0.000955703               0.000000000               0.000000000               0.000000000               0.000000000               0.002467057               0.021894006               0.003018828              -0.001811601               0.007901796               0.006090194               0.000000000               0.000000000               0.000000000               0.000000000               0.002001115               0.017354642               0.001507600              -0.001418909               0.006257793               0.004838883               0.000000000               0.000000000               0.000000000               0.000000000               0.002199655               0.013812899               0.000012412              -0.000901740               0.004904834               0.004003094               0.000000000               0.000000000               0.000000000               0.000000000               0.001892838               0.011780665              -0.000597650              -0.000762767               0.004181105               0.003418338               0.000000000               0.000000000               0.000000000               0.000000000               0.001494790               0.010469306              -0.000829019              -0.000748115               0.003739106               0.002990990               0.000000000               0.000000000               0.000000000               0.000000000               0.001132405               0.009535859              -0.000898723              -0.000767329               0.003434364               0.002667035               0.000000000               0.000000000               0.000000000               0.000000000               0.000832309               0.008812786              -0.000898563              -0.000789481               0.003200726               0.002411245               0.000000000               0.000000000               0.000000000               0.000000000               0.000580948               0.008212342              -0.000869202              -0.000808685               0.003006982               0.002198296               0.000000000               0.000000000               0.000000000               0.000000000               0.000373546               0.007687201              -0.000825574              -0.000820819               0.002835981               0.002015162               0.000000000               0.000000000               0.000000000               0.000000000               0.000211320               0.007214076              -0.000772263              -0.000822513               0.002678839               0.001856326               0.000000000               0.000000000               0.000000000               0.000000000               0.000088655               0.006770375              -0.000713872              -0.000813050               0.002527786               0.001714736               0.000000000               0.000000000               0.000000000               0.000000000              -0.000002961               0.006337308              -0.000650679              -0.000793272               0.002376839               0.001583567               0.000000000               0.000000000               0.000000000               0.000000000              -0.000063288               0.005898589              -0.000578984              -0.000761055               0.002219861               0.001458807               0.000000000               0.000000000               0.000000000               0.000000000              -0.000088441               0.005447142              -0.000490202              -0.000714056               0.002053715               0.001339658               0.000000000               0.000000000               0.000000000               0.000000000              -0.000081542               0.004984303              -0.000374750              -0.000653614               0.001879289               0.001225675               0.000000000               0.000000000               0.000000000               0.000000000              -0.000047982               0.004512427              -0.000213096              -0.000582045               0.001698142               0.001116097               0.000000000               0.000000000               0.000000000               0.000000000              -0.000061605               0.004182271              -0.000132154              -0.000545884               0.001576038               0.001030154               0.000000000               0.000000000               0.000000000               0.000000000               0.002648471               0.019738561               0.004010985              -0.001474142               0.007070835               0.005596693               0.000000000               0.000000000               0.000000000               0.000000000               0.001711028               0.015970099               0.002008621              -0.001354624               0.005774854               0.004420230               0.000000000               0.000000000               0.000000000               0.000000000               0.001408616               0.013194672               0.000056213              -0.001121100               0.004771880               0.003650780               0.000000000               0.000000000               0.000000000               0.000000000               0.000949379               0.011527917              -0.000701559              -0.001084970               0.004204257               0.003119287               0.000000000               0.000000000               0.000000000               0.000000000               0.000552479               0.010390780              -0.000973035              -0.001091665               0.003827447               0.002735782               0.000000000               0.000000000               0.000000000               0.000000000               0.000253169               0.009531930              -0.001044901              -0.001096551               0.003542795               0.002446245               0.000000000               0.000000000               0.000000000               0.000000000               0.000035369               0.008836789              -0.001034330              -0.001091333               0.003309344               0.002218012               0.000000000               0.000000000               0.000000000               0.000000000              -0.000120907               0.008242740              -0.000991573              -0.001075680               0.003106113               0.002030432               0.000000000               0.000000000               0.000000000               0.000000000              -0.000224015               0.007717625              -0.000938486              -0.001048706               0.002922085               0.001873378               0.000000000               0.000000000               0.000000000               0.000000000              -0.000286881               0.007240966              -0.000878637              -0.001012699               0.002751197               0.001738499               0.000000000               0.000000000               0.000000000               0.000000000              -0.000318597               0.006796548              -0.000811641              -0.000969040               0.002588507               0.001619466               0.000000000               0.000000000               0.000000000               0.000000000              -0.000319690               0.006370820              -0.000734826              -0.000916234               0.002428997               0.001512762               0.000000000               0.000000000               0.000000000               0.000000000              -0.000290673               0.005953808              -0.000643356              -0.000853226               0.002268992               0.001415765               0.000000000               0.000000000               0.000000000               0.000000000              -0.000238233               0.005546751              -0.000535294              -0.000782679               0.002109791               0.001327112               0.000000000               0.000000000               0.000000000               0.000000000              -0.000163913               0.005164306              -0.000400417              -0.000707004               0.001957086               0.001250082               0.000000000               0.000000000               0.000000000               0.000000000              -0.000081351               0.004821160              -0.000221720              -0.000633150               0.001818087               0.001184937               0.000000000               0.000000000               0.000000000               0.000000000              -0.000064147               0.004611357              -0.000131959              -0.000600473               0.001737262               0.001136788               0.000000000               0.000000000               0.000000000               0.000000000               0.002694206               0.017121371               0.004509898              -0.001129845               0.006083681               0.004953836               0.000000000               0.000000000               0.000000000               0.000000000               0.001262635               0.014326018               0.002289454              -0.001317262               0.005214379               0.003897116               0.000000000               0.000000000               0.000000000               0.000000000               0.000437777               0.012471604               0.000160329              -0.001394781               0.004622087               0.003227306               0.000000000               0.000000000               0.000000000               0.000000000              -0.000124511               0.011206091              -0.000615867              -0.001447449               0.004217809               0.002770360               0.000000000               0.000000000               0.000000000               0.000000000              -0.000468914               0.010244692              -0.000875356              -0.001456426               0.003900338               0.002443912               0.000000000               0.000000000               0.000000000               0.000000000              -0.000659862               0.009464844              -0.000934221              -0.001430550               0.003631767               0.002201216               0.000000000               0.000000000               0.000000000               0.000000000              -0.000754932               0.008803996              -0.000919392              -0.001383596               0.003395834               0.002012239               0.000000000               0.000000000               0.000000000               0.000000000              -0.000787001               0.008223123              -0.000880352              -0.001323013               0.003182018               0.001859005               0.000000000               0.000000000               0.000000000               0.000000000              -0.000769751               0.007700986              -0.000834582              -0.001251277               0.002984062               0.001732785               0.000000000               0.000000000               0.000000000               0.000000000              -0.000718238               0.007222174              -0.000782800              -0.001172108               0.002798070               0.001625962               0.000000000               0.000000000               0.000000000               0.000000000              -0.000641892               0.006774706              -0.000722816              -0.001087545               0.002620728               0.001533183               0.000000000               0.000000000               0.000000000               0.000000000              -0.000542071               0.006352234              -0.000649315              -0.000997303               0.002449825               0.001452521               0.000000000               0.000000000               0.000000000               0.000000000              -0.000422507               0.005958935              -0.000557846              -0.000903305               0.002287393               0.001384088               0.000000000               0.000000000               0.000000000               0.000000000              -0.000297885               0.005604888              -0.000450701              -0.000812316               0.002139049               0.001326733               0.000000000               0.000000000               0.000000000               0.000000000              -0.000180030               0.005305176              -0.000323978              -0.000730656               0.002011926               0.001281270               0.000000000               0.000000000               0.000000000               0.000000000              -0.000082261               0.005079029              -0.000171467              -0.000665725               0.001914901               0.001249176               0.000000000               0.000000000               0.000000000               0.000000000              -0.000050591               0.004969972              -0.000095231              -0.000640217               0.001870046               0.001229830               0.000000000               0.000000000               0.000000000               0.000000000               0.002473106               0.014309074               0.004530292              -0.000861222               0.005056716               0.004195495               0.000000000               0.000000000               0.000000000               0.000000000               0.000655536               0.012595071               0.002387492              -0.001328556               0.004641167               0.003312611               0.000000000               0.000000000               0.000000000               0.000000000              -0.000598344               0.011687697               0.000358208              -0.001685337               0.004457639               0.002772302               0.000000000               0.000000000               0.000000000               0.000000000              -0.001169593               0.010793748              -0.000339276              -0.001787811               0.004193817               0.002406006               0.000000000               0.000000000               0.000000000               0.000000000              -0.001393744               0.009990122              -0.000567193              -0.001771415               0.003920479               0.002149064               0.000000000               0.000000000               0.000000000               0.000000000              -0.001434170               0.009285651              -0.000624989              -0.001698516               0.003661358               0.001962842               0.000000000               0.000000000               0.000000000               0.000000000              -0.001383282               0.008660059              -0.000626268              -0.001601234               0.003420402               0.001819168               0.000000000               0.000000000               0.000000000               0.000000000              -0.001282944               0.008097637              -0.000608154              -0.001493305               0.003196954               0.001703649               0.000000000               0.000000000               0.000000000               0.000000000              -0.001151540               0.007582281              -0.000584607              -0.001379609               0.002987271               0.001607662               0.000000000               0.000000000               0.000000000               0.000000000              -0.000992773               0.007104856              -0.000553523              -0.001260394               0.002788393               0.001527999               0.000000000               0.000000000               0.000000000               0.000000000              -0.000813086               0.006655212              -0.000511632              -0.001136806               0.002597317               0.001460511               0.000000000               0.000000000               0.000000000               0.000000000              -0.000625644               0.006239382              -0.000455208              -0.001014537               0.002417952               0.001403415               0.000000000               0.000000000               0.000000000               0.000000000              -0.000442877               0.005873172              -0.000380755              -0.000900223               0.002257779               0.001357556               0.000000000               0.000000000               0.000000000               0.000000000              -0.000280822               0.005569845              -0.000293344              -0.000801537               0.002123775               0.001322238               0.000000000               0.000000000               0.000000000               0.000000000              -0.000150920               0.005338561              -0.000194643              -0.000723913               0.002020807               0.001296894               0.000000000               0.000000000               0.000000000               0.000000000              -0.000061139               0.005187552              -0.000092823              -0.000671370               0.001952956               0.001281587               0.000000000               0.000000000               0.000000000               0.000000000              -0.000032861               0.005126322              -0.000047101              -0.000653112               0.001926461               0.001273349               0.000000000               0.000000000               0.000000000               0.000000000               0.001920893               0.011518416               0.004160912              -0.000719469               0.004079256               0.003359786               0.000000000               0.000000000               0.000000000               0.000000000              -0.000078489               0.010899753               0.002361658              -0.001391901               0.004097181               0.002705280               0.000000000               0.000000000               0.000000000               0.000000000              -0.001583872               0.010864013               0.000655691              -0.001951949               0.004271951               0.002320002               0.000000000               0.000000000               0.000000000               0.000000000              -0.002052073               0.010284445               0.000081091              -0.002055078               0.004113140               0.002058062               0.000000000               0.000000000               0.000000000               0.000000000              -0.002100742               0.009619578              -0.000128341              -0.001990221               0.003869901               0.001879680               0.000000000               0.000000000               0.000000000               0.000000000              -0.001971762               0.008979823              -0.000209975              -0.001861884               0.003613872               0.001751988               0.000000000               0.000000000               0.000000000               0.000000000              -0.001777927               0.008387274              -0.000248517              -0.001715128               0.003367439               0.001652311               0.000000000               0.000000000               0.000000000               0.000000000              -0.001557525               0.007843535              -0.000269467              -0.001564510               0.003135989               0.001571479               0.000000000               0.000000000               0.000000000               0.000000000              -0.001324272               0.007343627              -0.000278233              -0.001414552               0.002919368               0.001504816               0.000000000               0.000000000               0.000000000               0.000000000              -0.001078809               0.006872469              -0.000273512              -0.001263609               0.002712003               0.001448394               0.000000000               0.000000000               0.000000000               0.000000000              -0.000826405               0.006432505              -0.000255463              -0.001113962               0.002515467               0.001401505               0.000000000               0.000000000               0.000000000               0.000000000              -0.000588678               0.006042121              -0.000225065              -0.000976017               0.002339359               0.001363342               0.000000000               0.000000000               0.000000000               0.000000000              -0.000381767               0.005717928              -0.000180149              -0.000857902               0.002191924               0.001334023               0.000000000               0.000000000               0.000000000               0.000000000              -0.000218937               0.005465511              -0.000126584              -0.000765288               0.002076915               0.001311626               0.000000000               0.000000000               0.000000000               0.000000000              -0.000105374               0.005283840              -0.000072210              -0.000699994               0.001994594               0.001294600               0.000000000               0.000000000               0.000000000               0.000000000              -0.000037250               0.005167394              -0.000027240              -0.000659891               0.001942411               0.001282520               0.000000000               0.000000000               0.000000000               0.000000000              -0.000023207               0.005112962              -0.000013884              -0.000647821               0.001920244               0.001272423               0.000000000               0.000000000               0.000000000               0.000000000               0.001068180               0.008930558               0.003499662              -0.000715754               0.003215406               0.002499653               0.000000000               0.000000000               0.000000000               0.000000000              -0.000898680               0.009338124               0.002257243              -0.001504268               0.003614099               0.002109831               0.000000000               0.000000000               0.000000000               0.000000000              -0.002426219               0.010019006               0.001037874              -0.002162203               0.004060369               0.001898167               0.000000000               0.000000000               0.000000000               0.000000000              -0.002692950               0.009691554               0.000574153              -0.002221295               0.003970917               0.001749622               0.000000000               0.000000000               0.000000000               0.000000000              -0.002542029               0.009148988               0.000351434              -0.002096879               0.003748592               0.001651713               0.000000000               0.000000000               0.000000000               0.000000000              -0.002255020               0.008574459               0.000224288              -0.001917435               0.003497269               0.001579834               0.000000000               0.000000000               0.000000000               0.000000000              -0.001937688               0.008019626               0.000136023              -0.001729082               0.003249543               0.001520460               0.000000000               0.000000000               0.000000000               0.000000000              -0.001616477               0.007501459               0.000067790              -0.001543857               0.003015080               0.001471223               0.000000000               0.000000000               0.000000000               0.000000000              -0.001298885               0.007019621               0.000019121              -0.001364531               0.002794694               0.001430163               0.000000000               0.000000000               0.000000000               0.000000000              -0.000992046               0.006565880              -0.000007148              -0.001192749               0.002586188               0.001393439               0.000000000               0.000000000               0.000000000               0.000000000              -0.000705421               0.006156453              -0.000020707              -0.001034087               0.002396826               0.001362739               0.000000000               0.000000000               0.000000000               0.000000000              -0.000460241               0.005811160              -0.000027047              -0.000898983               0.002236695               0.001337712               0.000000000               0.000000000               0.000000000               0.000000000              -0.000270601               0.005537453              -0.000022990              -0.000793655               0.002110351               0.001316696               0.000000000               0.000000000               0.000000000               0.000000000              -0.000137665               0.005335350              -0.000012444              -0.000718541               0.002017946               0.001299404               0.000000000               0.000000000               0.000000000               0.000000000              -0.000055252               0.005194623              -0.000003511              -0.000670046               0.001954872               0.001284827               0.000000000               0.000000000               0.000000000               0.000000000              -0.000015601               0.005102218              -0.000000255              -0.000643626               0.001915264               0.001271638               0.000000000               0.000000000               0.000000000               0.000000000              -0.000015994               0.005055234              -0.000005562              -0.000637901               0.001897695               0.001259794               0.000000000               0.000000000               0.000000000               0.000000000               0.000030298               0.006738371               0.002669600              -0.000830935               0.002523079               0.001692144               0.000000000               0.000000000               0.000000000               0.000000000              -0.001696136               0.007943763               0.002126459              -0.001629018               0.003190900               0.001561882               0.000000000               0.000000000               0.000000000               0.000000000              -0.003067957               0.009195170               0.001485216              -0.002299875               0.003831651               0.001531776               0.000000000               0.000000000               0.000000000               0.000000000              -0.003117398               0.009129699               0.001093751              -0.002310231               0.003813280               0.001503049               0.000000000               0.000000000               0.000000000               0.000000000              -0.002802676               0.008729779               0.000834424              -0.002142221               0.003623971               0.001481750               0.000000000               0.000000000               0.000000000               0.000000000              -0.002392206               0.008239293               0.000651331              -0.001926984               0.003388732               0.001461747               0.000000000               0.000000000               0.000000000               0.000000000              -0.001982008               0.007739910               0.000511746              -0.001710738               0.003150190               0.001439452               0.000000000               0.000000000               0.000000000               0.000000000              -0.001586455               0.007263606               0.000396982              -0.001502868               0.002922134               0.001419266               0.000000000               0.000000000               0.000000000               0.000000000              -0.001206152               0.006807638               0.000304814              -0.001303259               0.002703610               0.001400351               0.000000000               0.000000000               0.000000000               0.000000000              -0.000856131               0.006373492               0.000235014              -0.001117733               0.002497054               0.001379321               0.000000000               0.000000000               0.000000000               0.000000000              -0.000554316               0.005992392               0.000178265              -0.000956915               0.002316416               0.001359501               0.000000000               0.000000000               0.000000000               0.000000000              -0.000320290               0.005679092               0.000127475              -0.000829993               0.002169676               0.001339683               0.000000000               0.000000000               0.000000000               0.000000000              -0.000157482               0.005435831               0.000087035              -0.000738533               0.002058103               0.001319570               0.000000000               0.000000000               0.000000000               0.000000000              -0.000056612               0.005256642               0.000054211              -0.000678308               0.001978299               0.001299991               0.000000000               0.000000000               0.000000000               0.000000000              -0.000007148               0.005134347               0.000026049              -0.000644472               0.001926256               0.001281784               0.000000000               0.000000000               0.000000000               0.000000000               0.000003697               0.005056937               0.000004802              -0.000630729               0.001895872               0.001265143               0.000000000               0.000000000               0.000000000               0.000000000              -0.000001551               0.005024558              -0.000005116              -0.000628650               0.001884386               0.001255736               0.000000000               0.000000000               0.000000000               0.000000000              -0.001194260               0.004700942               0.001786934              -0.001035464               0.001912119               0.000876655               0.000000000               0.000000000               0.000000000               0.000000000              -0.002351759               0.006350854               0.001974675              -0.001675763               0.002675517               0.000999754               0.000000000               0.000000000               0.000000000               0.000000000              -0.003424342               0.008008331               0.001952691              -0.002285165               0.003431138               0.001145973               0.000000000               0.000000000               0.000000000               0.000000000              -0.003361960               0.008312934               0.001650276              -0.002299847               0.003537566               0.001237719               0.000000000               0.000000000               0.000000000               0.000000000              -0.002992603               0.008169106               0.001361741              -0.002143359               0.003437461               0.001294102               0.000000000               0.000000000               0.000000000               0.000000000              -0.002542597               0.007860308               0.001123435              -0.001936008               0.003265412               0.001329404               0.000000000               0.000000000               0.000000000               0.000000000              -0.002097696               0.007497101               0.000931744              -0.001723770               0.003073598               0.001349829               0.000000000               0.000000000               0.000000000               0.000000000              -0.001682011               0.007125518               0.000771801              -0.001521440               0.002882296               0.001360855               0.000000000               0.000000000               0.000000000               0.000000000              -0.001290488               0.006755165               0.000635202              -0.001328325               0.002694474               0.001366149               0.000000000               0.000000000               0.000000000               0.000000000              -0.000928482               0.006388457               0.000513927              -0.001146735               0.002511709               0.001364974               0.000000000               0.000000000               0.000000000               0.000000000              -0.000612606               0.006043435               0.000404005              -0.000985154               0.002342843               0.001357689               0.000000000               0.000000000               0.000000000               0.000000000              -0.000358049               0.005742738               0.000304501              -0.000852109               0.002198263               0.001346155               0.000000000               0.000000000               0.000000000               0.000000000              -0.000174713               0.005494412               0.000218388              -0.000752317               0.002082225               0.001329907               0.000000000               0.000000000               0.000000000               0.000000000              -0.000058602               0.005298988               0.000140647              -0.000684347               0.001994427               0.001310080               0.000000000               0.000000000               0.000000000               0.000000000               0.000001275               0.005157274               0.000072486              -0.000644180               0.001933801               0.001289621               0.000000000               0.000000000               0.000000000               0.000000000               0.000016487               0.005061245               0.000024271              -0.000626471               0.001895889               0.001269417               0.000000000               0.000000000               0.000000000               0.000000000               0.000013939               0.005025707               0.000005910              -0.000622985               0.001882880               0.001259896               0.000000000               0.000000000               0.000000000               0.000000000              -0.002762318               0.002860630               0.000907173              -0.001393445               0.001418014               0.000024569               0.000000000               0.000000000               0.000000000               0.000000000              -0.003086834               0.004758307               0.001745760              -0.001752348               0.002170202               0.000417854               0.000000000               0.000000000               0.000000000               0.000000000              -0.003677852               0.006633991               0.002317086              -0.002208439               0.002947454               0.000739015               0.000000000               0.000000000               0.000000000               0.000000000              -0.003515012               0.007286645               0.002175696              -0.002228955               0.003171842               0.000942887               0.000000000               0.000000000               0.000000000               0.000000000              -0.003126938               0.007436692               0.001901192              -0.002102184               0.003179600               0.001077416               0.000000000               0.000000000               0.000000000               0.000000000              -0.002669728               0.007358370               0.001632364              -0.001920940               0.003093078               0.001172138               0.000000000               0.000000000               0.000000000               0.000000000              -0.002213864               0.007169669               0.001397259              -0.001726404               0.002965333               0.001238930               0.000000000               0.000000000               0.000000000               0.000000000              -0.001788168               0.006930077               0.001197438              -0.001536819               0.002822275               0.001285456               0.000000000               0.000000000               0.000000000               0.000000000              -0.001392734               0.006668871               0.001022524              -0.001355881               0.002674895               0.001319014               0.000000000               0.000000000               0.000000000               0.000000000              -0.001023982               0.006397801               0.000859031              -0.001183716               0.002527151               0.001343435               0.000000000               0.000000000               0.000000000               0.000000000              -0.000689656               0.006114445               0.000705863              -0.001022924               0.002379103               0.001356178               0.000000000               0.000000000               0.000000000               0.000000000              -0.000399105               0.005839627               0.000562707              -0.000879616               0.002239728               0.001360112               0.000000000               0.000000000               0.000000000               0.000000000              -0.000170530               0.005591432               0.000428651              -0.000762876               0.002118084               0.001355208               0.000000000               0.000000000               0.000000000               0.000000000              -0.000013651               0.005380214               0.000302642              -0.000677644               0.002019268               0.001341624               0.000000000               0.000000000               0.000000000               0.000000000               0.000074037               0.005211031               0.000183711              -0.000623614               0.001944864               0.001321251               0.000000000               0.000000000               0.000000000               0.000000000               0.000097430               0.005088974               0.000081976              -0.000599584               0.001896169               0.001296585               0.000000000               0.000000000               0.000000000               0.000000000               0.000084752               0.005036021               0.000033679              -0.000597719               0.001877897               0.001280177               0.000000000               0.000000000               0.000000000               0.000000000              -0.004578943               0.001356549               0.000106744              -0.001886669               0.001081066              -0.000805604               0.000000000               0.000000000               0.000000000               0.000000000              -0.003956855               0.003258613               0.001420619              -0.001891143               0.001716573              -0.000174570               0.000000000               0.000000000               0.000000000               0.000000000              -0.003870691               0.005089493               0.002463175              -0.002087691               0.002392377               0.000304685               0.000000000               0.000000000               0.000000000               0.000000000              -0.003521469               0.005981268               0.002522175              -0.002068205               0.002683137               0.000614932               0.000000000               0.000000000               0.000000000               0.000000000              -0.003098186               0.006398183               0.002317512              -0.001961589               0.002786568               0.000824980               0.000000000               0.000000000               0.000000000               0.000000000              -0.002645320               0.006557566               0.002059701              -0.001811687               0.002789729               0.000978042               0.000000000               0.000000000               0.000000000               0.000000000              -0.002195849               0.006567939               0.001809035              -0.001644432               0.002737435               0.001093002               0.000000000               0.000000000               0.000000000               0.000000000              -0.001771354               0.006494272               0.001587249              -0.001476039               0.002656748               0.001180710               0.000000000               0.000000000               0.000000000               0.000000000              -0.001378033               0.006373135               0.001390675              -0.001313402               0.002562157               0.001248756               0.000000000               0.000000000               0.000000000               0.000000000              -0.001007865               0.006220365               0.001206327              -0.001155493               0.002458598               0.001303106               0.000000000               0.000000000               0.000000000               0.000000000              -0.000661017               0.006030726               0.001030634              -0.001001720               0.002344129               0.001342409               0.000000000               0.000000000               0.000000000               0.000000000              -0.000347391               0.005819200               0.000859078              -0.000857670               0.002225604               0.001367934               0.000000000               0.000000000               0.000000000               0.000000000              -0.000076429               0.005610817               0.000688226              -0.000730011               0.002113591               0.001383579               0.000000000               0.000000000               0.000000000               0.000000000               0.000129783               0.005415465               0.000515650              -0.000628263               0.002014558               0.001386295               0.000000000               0.000000000               0.000000000               0.000000000               0.000256841               0.005242276               0.000340361              -0.000558968               0.001933730               0.001374763               0.000000000               0.000000000               0.000000000               0.000000000               0.000299680               0.005105798               0.000167017              -0.000525843               0.001877197               0.001351353               0.000000000               0.000000000               0.000000000               0.000000000               0.000284310               0.005038858               0.000077354              -0.000523240               0.001854016               0.001330776               0.000000000               0.000000000               0.000000000               0.000000000              -0.006522392               0.000257300              -0.000498614              -0.002478057               0.000911779              -0.001566278               0.000000000               0.000000000               0.000000000               0.000000000              -0.004913158               0.001934465               0.001048256              -0.002084239               0.001339559              -0.000744681               0.000000000               0.000000000               0.000000000               0.000000000              -0.004032823               0.003506282               0.002363963              -0.001950590               0.001818944              -0.000131646               0.000000000               0.000000000               0.000000000               0.000000000              -0.003412195               0.004503443               0.002600384              -0.001842500               0.002115298               0.000272798               0.000000000               0.000000000               0.000000000               0.000000000              -0.002911767               0.005122101               0.002495375              -0.001732172               0.002284739               0.000552567               0.000000000               0.000000000               0.000000000               0.000000000              -0.002457752               0.005496026               0.002286265              -0.001608657               0.002368209               0.000759551               0.000000000               0.000000000               0.000000000               0.000000000              -0.002024943               0.005711488               0.002054896              -0.001473287               0.002394905               0.000921618               0.000000000               0.000000000               0.000000000               0.000000000              -0.001612716               0.005823763               0.001835380              -0.001332737               0.002385480               0.001052744               0.000000000               0.000000000               0.000000000               0.000000000              -0.001228200               0.005859273               0.001637831              -0.001192982               0.002350732               0.001157750               0.000000000               0.000000000               0.000000000               0.000000000              -0.000865105               0.005833025               0.001457103              -0.001053540               0.002295502               0.001241962               0.000000000               0.000000000               0.000000000               0.000000000              -0.000514649               0.005759508               0.001282927              -0.000912930               0.002224127               0.001311197               0.000000000               0.000000000               0.000000000               0.000000000              -0.000178375               0.005650080               0.001108003              -0.000773149               0.002141057               0.001367908               0.000000000               0.000000000               0.000000000               0.000000000               0.000130474               0.005517505               0.000924516              -0.000640759               0.002052736               0.001411977               0.000000000               0.000000000               0.000000000               0.000000000               0.000393856               0.005374933               0.000723480              -0.000524170               0.001966349               0.001442180               0.000000000               0.000000000               0.000000000               0.000000000               0.000592944               0.005235146               0.000503946              -0.000432038               0.001889044               0.001457005               0.000000000               0.000000000               0.000000000               0.000000000               0.000705751               0.005109821               0.000261879              -0.000374070               0.001827947               0.001453877               0.000000000               0.000000000               0.000000000               0.000000000               0.000731184               0.005046315               0.000133251              -0.000356595               0.001800953               0.001444358               0.000000000               0.000000000               0.000000000               0.000000000              -0.008396541              -0.000454542              -0.000811580              -0.003091883               0.000879107              -0.002212775               0.000000000               0.000000000               0.000000000               0.000000000              -0.005868103               0.000857364               0.000688363              -0.002307707               0.001055016              -0.001252691               0.000000000               0.000000000               0.000000000               0.000000000              -0.004177343               0.002033072               0.002021381              -0.001820635               0.001284559              -0.000536076               0.000000000               0.000000000               0.000000000               0.000000000              -0.003235642               0.003019213               0.002356294              -0.001590765               0.001536648              -0.000054117               0.000000000               0.000000000               0.000000000               0.000000000              -0.002616406               0.003760788               0.002342428              -0.001451248               0.001737332               0.000286083               0.000000000               0.000000000               0.000000000               0.000000000              -0.002139026               0.004301610               0.002201989              -0.001339834               0.001880466               0.000540632               0.000000000               0.000000000               0.000000000               0.000000000              -0.001721382               0.004694459               0.002017307              -0.001232324               0.001975578               0.000743254               0.000000000               0.000000000               0.000000000               0.000000000              -0.001329430               0.004977107               0.001828002              -0.001120673               0.002032576               0.000911903               0.000000000               0.000000000               0.000000000               0.000000000              -0.000959926               0.005167758               0.001652201              -0.001005940               0.002057882               0.001051941               0.000000000               0.000000000               0.000000000               0.000000000              -0.000604741               0.005277097               0.001494360              -0.000886413               0.002054486               0.001168072               0.000000000               0.000000000               0.000000000               0.000000000              -0.000253490               0.005329648               0.001346301              -0.000761263               0.002030286               0.001269022               0.000000000               0.000000000               0.000000000               0.000000000               0.000100036               0.005339295               0.001193891              -0.000629898               0.001989713               0.001359815               0.000000000               0.000000000               0.000000000               0.000000000               0.000446847               0.005310376               0.001024555              -0.000496229               0.001935517               0.001439288               0.000000000               0.000000000               0.000000000               0.000000000               0.000778135               0.005251472               0.000831452              -0.000364633               0.001872017               0.001507384               0.000000000               0.000000000               0.000000000               0.000000000               0.001082965               0.005173279               0.000604849              -0.000240548               0.001804592               0.001564044               0.000000000               0.000000000               0.000000000               0.000000000               0.001336823               0.005087833               0.000326716              -0.000134670               0.001740817               0.001606147               0.000000000               0.000000000               0.000000000               0.000000000               0.001475155               0.005053660               0.000178709              -0.000078525               0.001710711               0.001632187               0.000000000               0.000000000               0.000000000               0.000000000              -0.009974981              -0.000849286              -0.000791589              -0.003634455               0.000928383              -0.002706072               0.000000000               0.000000000               0.000000000               0.000000000              -0.006700434               0.000075979               0.000391063              -0.002522158               0.000866039              -0.001656118               0.000000000               0.000000000               0.000000000               0.000000000              -0.004303656               0.000835327               0.001473251              -0.001718285               0.000851197              -0.000867088               0.000000000               0.000000000               0.000000000               0.000000000              -0.003046513               0.001737584               0.001794503              -0.001359638               0.001032400              -0.000327239               0.000000000               0.000000000               0.000000000               0.000000000              -0.002291837               0.002534114               0.001829540              -0.001176201               0.001236762               0.000060561               0.000000000               0.000000000               0.000000000               0.000000000              -0.001772365               0.003183306               0.001752469              -0.001062548               0.001415273               0.000352725               0.000000000               0.000000000               0.000000000               0.000000000              -0.001357725               0.003704967               0.001629395              -0.000972266               0.001559065               0.000586799               0.000000000               0.000000000               0.000000000               0.000000000              -0.000986526               0.004122846               0.001491204              -0.000885301               0.001669368               0.000784067               0.000000000               0.000000000               0.000000000               0.000000000              -0.000635525               0.004447010               0.001359813              -0.000794197               0.001747054               0.000952857               0.000000000               0.000000000               0.000000000               0.000000000              -0.000290668               0.004681000               0.001245369              -0.000694124               0.001791692               0.001097568               0.000000000               0.000000000               0.000000000               0.000000000               0.000058048               0.004848057               0.001138592              -0.000584238               0.001810748               0.001226510               0.000000000               0.000000000               0.000000000               0.000000000               0.000420297               0.004974765               0.001026306              -0.000464234               0.001812983               0.001348749               0.000000000               0.000000000               0.000000000               0.000000000               0.000801753               0.005056720               0.000899070              -0.000331432               0.001796034               0.001464601               0.000000000               0.000000000               0.000000000               0.000000000               0.001203059               0.005088300               0.000750077              -0.000184890               0.001757713               0.001572823               0.000000000               0.000000000               0.000000000               0.000000000               0.001625030               0.005083532               0.000564733              -0.000026056               0.001703179               0.001677123               0.000000000               0.000000000               0.000000000               0.000000000               0.002065145               0.005051132               0.000315745               0.000143036               0.001636015               0.001779051               0.000000000               0.000000000               0.000000000               0.000000000               0.002373747               0.005058791               0.000183342               0.000257804               0.001600312               0.001858116               0.000000000               0.000000000               0.000000000               0.000000000              -0.011034465              -0.001023941              -0.000482223              -0.004009929               0.000995323              -0.003014607               0.000000000               0.000000000               0.000000000               0.000000000              -0.007274440              -0.000391019               0.000169481              -0.002679036               0.000762667              -0.001916369               0.000000000               0.000000000               0.000000000               0.000000000              -0.004394093               0.000053986               0.000776621              -0.001654532               0.000569502              -0.001085030               0.000000000               0.000000000               0.000000000               0.000000000              -0.002902826               0.000864360               0.000973163              -0.001196603               0.000686983              -0.000509621               0.000000000               0.000000000               0.000000000               0.000000000              -0.002036275               0.001671023               0.001007935              -0.000972479               0.000881161              -0.000091318               0.000000000               0.000000000               0.000000000               0.000000000              -0.001475304               0.002378263               0.000976310              -0.000850520               0.001076253               0.000225733               0.000000000               0.000000000               0.000000000               0.000000000              -0.001058615               0.002978820               0.000915309              -0.000769332               0.001249374               0.000480042               0.000000000               0.000000000               0.000000000               0.000000000              -0.000702321               0.003481369               0.000841795              -0.000698540               0.001393291               0.000694751               0.000000000               0.000000000               0.000000000               0.000000000              -0.000363261               0.003895352               0.000771648              -0.000623141               0.001506151               0.000883010               0.000000000               0.000000000               0.000000000               0.000000000              -0.000029757               0.004222067               0.000711871              -0.000538916               0.001586980               0.001048064               0.000000000               0.000000000               0.000000000               0.000000000               0.000310601               0.004476758               0.000656150              -0.000443118               0.001639944               0.001196825               0.000000000               0.000000000               0.000000000               0.000000000               0.000676953               0.004685907               0.000597947              -0.000331881               0.001672580               0.001340700               0.000000000               0.000000000               0.000000000               0.000000000               0.001082763               0.004850045               0.000531875              -0.000200219               0.001683405               0.001483186               0.000000000               0.000000000               0.000000000               0.000000000               0.001537732               0.004957441               0.000451925              -0.000043031               0.001666807               0.001623776               0.000000000               0.000000000               0.000000000               0.000000000               0.002056147               0.005014728               0.000349152               0.000144213               0.001623488               0.001767701               0.000000000               0.000000000               0.000000000               0.000000000               0.002658339               0.005024919               0.000202240               0.000368758               0.001552037               0.001920795               0.000000000               0.000000000               0.000000000               0.000000000               0.003127017               0.005068030               0.000123697               0.000539122               0.001509619               0.002048741               0.000000000               0.000000000               0.000000000               0.000000000               0.000000000               0.000000000               0.000000000               0.000000000               0.000000000               0.000000000               0.000000000               0.000000000               0.000000000               0.000000000               0.000000000               0.000000000               0.000000000               0.000000000               0.000000000               0.000000000               0.000000000               0.000000000               0.000000000               0.000000000               0.000000000               0.000000000               0.000000000               0.000000000               0.000000000               0.000000000               0.000000000               0.000000000               0.000000000               0.000000000               0.000000000               0.000000000               0.000000000               0.000000000               0.000000000               0.000000000               0.000000000               0.000000000               0.000000000               0.000000000               0.000000000               0.000000000               0.000000000               0.000000000               0.000000000               0.000000000               0.000000000               0.000000000               0.000000000               0.000000000               0.000000000               0.000000000               0.000000000               0.000000000               0.000000000               0.000000000               0.000000000               0.000000000               0.000000000               0.000000000               0.000000000               0.000000000               0.000000000               0.000000000               0.000000000               0.000000000               0.000000000               0.000000000               0.000000000               0.000000000               0.000000000               0.000000000               0.000000000               0.000000000               0.000000000               0.000000000               0.000000000               0.000000000               0.000000000               0.000000000               0.000000000               0.000000000               0.000000000               0.000000000               0.000000000               0.000000000               0.000000000               0.000000000               0.000000000               0.000000000               0.000000000               0.000000000               0.000000000               0.000000000               0.000000000               0.000000000               0.000000000               0.000000000               0.000000000               0.000000000               0.000000000               0.000000000               0.000000000               0.000000000               0.000000000               0.000000000               0.000000000               0.000000000               0.000000000               0.000000000               0.000000000               0.000000000               0.000000000               0.000000000               0.000000000               0.000000000               0.000000000               0.000000000               0.000000000               0.000000000               0.000000000               0.000000000               0.000000000               0.000000000               0.000000000               0.000000000               0.000000000               0.000000000               0.000000000               0.000000000               0.000000000               0.000000000               0.000000000               0.000000000               0.000000000               0.000000000               0.000000000               0.000000000               0.000000000               0.000000000               0.000000000               0.000000000               0.000000000               0.000000000               0.000000000               0.000000000               0.000000000               0.000000000               0.000000000               0.000000000               0.000000000               0.000000000               0.000000000               0.000000000               0.000000000               0.000000000               0.000000000               0.000000000               0.000000000               0.000000000               0.000000000               0.000000000               0.000000000               0.000000000               0.000000000               0.000000000               0.000000000               0.000000000               0.000000000               0.000000000 </DataArray>
</PointData>
</Piece>
</UnstructuredGrid> </VTKFile>
