<?xml version="1.0"?>
<VTKFile type="UnstructuredGrid" version="0.1">
<UnstructuredGrid>
<Piece NumberOfPoints="      1156" NumberOfCells="      1024">
<Points>
<DataArray type="Float64"                                    Name="coordinates"                                                      NumberOfComponents=" 3" format="ascii">
              0.133000000               0.000000000               0.000000000               0.155937500               0.000000000               0.000000000               0.178875000               0.000000000               0.000000000               0.201812500               0.000000000               0.000000000               0.224750000               0.000000000               0.000000000               0.247687500               0.000000000               0.000000000               0.270625000               0.000000000               0.000000000               0.293562500               0.000000000               0.000000000               0.316500000               0.000000000               0.000000000               0.339437500               0.000000000               0.000000000               0.362375000               0.000000000               0.000000000               0.385312500               0.000000000               0.000000000               0.408250000               0.000000000               0.000000000               0.431187500               0.000000000               0.000000000               0.454125000               0.000000000               0.000000000               0.477062500               0.000000000               0.000000000               0.500000000               0.000000000               0.000000000               0.132359569               0.013036280               0.000000000               0.155337096               0.016127762               0.000000000               0.178314623               0.019219245               0.000000000               0.201292150               0.022310727               0.000000000               0.224269676               0.025402210               0.000000000               0.247247203               0.028493692               0.000000000               0.270224730               0.031585175               0.000000000               0.293202257               0.034676657               0.000000000               0.316179784               0.037768140               0.000000000               0.339157311               0.040859622               0.000000000               0.362134838               0.043951105               0.000000000               0.385112365               0.047042587               0.000000000               0.408089892               0.050134070               0.000000000               0.431067419               0.053225552               0.000000000               0.454044946               0.056317035               0.000000000               0.477022473               0.059408517               0.000000000               0.500000000               0.062500000               0.000000000               0.130444442               0.025947013               0.000000000               0.153541665               0.032137825               0.000000000               0.176638887               0.038328636               0.000000000               0.199736109               0.044519448               0.000000000               0.222833332               0.050710260               0.000000000               0.245930554               0.056901071               0.000000000               0.269027776               0.063091883               0.000000000               0.292124999               0.069282695               0.000000000               0.315222221               0.075473506               0.000000000               0.338319444               0.081664318               0.000000000               0.361416666               0.087855130               0.000000000               0.384513888               0.094045942               0.000000000               0.407611111               0.100236753               0.000000000               0.430708333               0.106427565               0.000000000               0.453805555               0.112618377               0.000000000               0.476902778               0.118809188               0.000000000               0.500000000               0.125000000               0.000000000               0.127273065               0.038607862               0.000000000               0.150568498               0.047913621               0.000000000               0.173863932               0.057219379               0.000000000               0.197159365               0.066525138               0.000000000               0.220454798               0.075830897               0.000000000               0.243750232               0.085136655               0.000000000               0.267045665               0.094442414               0.000000000               0.290341099               0.103748172               0.000000000               0.313636532               0.113053931               0.000000000               0.336931966               0.122359690               0.000000000               0.360227399               0.131665448               0.000000000               0.383522833               0.140971207               0.000000000               0.406818266               0.150276966               0.000000000               0.430113700               0.159582724               0.000000000               0.453409133               0.168888483               0.000000000               0.476704567               0.178194241               0.000000000               0.500000000               0.187500000               0.000000000               0.122875978               0.050896897               0.000000000               0.146446229               0.063340840               0.000000000               0.170016481               0.075784784               0.000000000               0.193586732               0.088228728               0.000000000               0.217156983               0.100672672               0.000000000               0.240727235               0.113116616               0.000000000               0.264297486               0.125560560               0.000000000               0.287867738               0.138004504               0.000000000               0.311437989               0.150448448               0.000000000               0.335008240               0.162892392               0.000000000               0.358578492               0.175336336               0.000000000               0.382148743               0.187780280               0.000000000               0.405718994               0.200224224               0.000000000               0.429289246               0.212668168               0.000000000               0.452859497               0.225112112               0.000000000               0.476429749               0.237556056               0.000000000               0.500000000               0.250000000               0.000000000               0.117295528               0.062695766               0.000000000               0.141214558               0.078308531               0.000000000               0.165133587               0.093921295               0.000000000               0.189052617               0.109534060               0.000000000               0.212971646               0.125146824               0.000000000               0.236890676               0.140759589               0.000000000               0.260809705               0.156372354               0.000000000               0.284728735               0.171985118               0.000000000               0.308647764               0.187597883               0.000000000               0.332566794               0.203210648               0.000000000               0.356485823               0.218823412               0.000000000               0.380404853               0.234436177               0.000000000               0.404323882               0.250048941               0.000000000               0.428242912               0.265661706               0.000000000               0.452161941               0.281274471               0.000000000               0.476080971               0.296887235               0.000000000               0.500000000               0.312500000               0.000000000               0.110585458               0.073890841               0.000000000               0.134923867               0.092710163               0.000000000               0.159262276               0.111529486               0.000000000               0.183600685               0.130348808               0.000000000               0.207939094               0.149168131               0.000000000               0.232277503               0.167987453               0.000000000               0.256615912               0.186806776               0.000000000               0.280954320               0.205626098               0.000000000               0.305292729               0.224445420               0.000000000               0.329631138               0.243264743               0.000000000               0.353969547               0.262084065               0.000000000               0.378307956               0.280903388               0.000000000               0.402646365               0.299722710               0.000000000               0.426984773               0.318542033               0.000000000               0.451323182               0.337361355               0.000000000               0.475661591               0.356180678               0.000000000               0.500000000               0.375000000               0.000000000               0.102810390               0.084374307               0.000000000               0.127634741               0.106444663               0.000000000               0.152459092               0.128515018               0.000000000               0.177283442               0.150585374               0.000000000               0.202107793               0.172655730               0.000000000               0.226932143               0.194726086               0.000000000               0.251756494               0.216796442               0.000000000               0.276580845               0.238866798               0.000000000               0.301405195               0.260937153               0.000000000               0.326229546               0.283007509               0.000000000               0.351053896               0.305077865               0.000000000               0.375878247               0.327148221               0.000000000               0.400702598               0.349218577               0.000000000               0.425526948               0.371288933               0.000000000               0.450351299               0.393359288               0.000000000               0.475175649               0.415429644               0.000000000               0.500000000               0.437500000               0.000000000               0.094045202               0.094045202               0.000000000               0.119417377               0.119417377               0.000000000               0.144789552               0.144789552               0.000000000               0.170161727               0.170161727               0.000000000               0.195533901               0.195533901               0.000000000               0.220906076               0.220906076               0.000000000               0.246278251               0.246278251               0.000000000               0.271650426               0.271650426               0.000000000               0.297022601               0.297022601               0.000000000               0.322394776               0.322394776               0.000000000               0.347766951               0.347766951               0.000000000               0.373139126               0.373139126               0.000000000               0.398511300               0.398511300               0.000000000               0.423883475               0.423883475               0.000000000               0.449255650               0.449255650               0.000000000               0.474627825               0.474627825               0.000000000               0.500000000               0.500000000               0.000000000               0.084374307               0.102810390               0.000000000               0.106444663               0.127634741               0.000000000               0.128515018               0.152459092               0.000000000               0.150585374               0.177283442               0.000000000               0.172655730               0.202107793               0.000000000               0.194726086               0.226932143               0.000000000               0.216796442               0.251756494               0.000000000               0.238866798               0.276580845               0.000000000               0.260937153               0.301405195               0.000000000               0.283007509               0.326229546               0.000000000               0.305077865               0.351053896               0.000000000               0.327148221               0.375878247               0.000000000               0.349218577               0.400702598               0.000000000               0.371288933               0.425526948               0.000000000               0.393359288               0.450351299               0.000000000               0.415429644               0.475175649               0.000000000               0.437500000               0.500000000               0.000000000               0.073890841               0.110585458               0.000000000               0.092710163               0.134923867               0.000000000               0.111529486               0.159262276               0.000000000               0.130348808               0.183600685               0.000000000               0.149168131               0.207939094               0.000000000               0.167987453               0.232277503               0.000000000               0.186806776               0.256615912               0.000000000               0.205626098               0.280954320               0.000000000               0.224445420               0.305292729               0.000000000               0.243264743               0.329631138               0.000000000               0.262084065               0.353969547               0.000000000               0.280903388               0.378307956               0.000000000               0.299722710               0.402646365               0.000000000               0.318542033               0.426984773               0.000000000               0.337361355               0.451323182               0.000000000               0.356180678               0.475661591               0.000000000               0.375000000               0.500000000               0.000000000               0.062695766               0.117295528               0.000000000               0.078308531               0.141214558               0.000000000               0.093921295               0.165133587               0.000000000               0.109534060               0.189052617               0.000000000               0.125146824               0.212971646               0.000000000               0.140759589               0.236890676               0.000000000               0.156372354               0.260809705               0.000000000               0.171985118               0.284728735               0.000000000               0.187597883               0.308647764               0.000000000               0.203210648               0.332566794               0.000000000               0.218823412               0.356485823               0.000000000               0.234436177               0.380404853               0.000000000               0.250048941               0.404323882               0.000000000               0.265661706               0.428242912               0.000000000               0.281274471               0.452161941               0.000000000               0.296887235               0.476080971               0.000000000               0.312500000               0.500000000               0.000000000               0.050896897               0.122875978               0.000000000               0.063340840               0.146446229               0.000000000               0.075784784               0.170016481               0.000000000               0.088228728               0.193586732               0.000000000               0.100672672               0.217156983               0.000000000               0.113116616               0.240727235               0.000000000               0.125560560               0.264297486               0.000000000               0.138004504               0.287867738               0.000000000               0.150448448               0.311437989               0.000000000               0.162892392               0.335008240               0.000000000               0.175336336               0.358578492               0.000000000               0.187780280               0.382148743               0.000000000               0.200224224               0.405718994               0.000000000               0.212668168               0.429289246               0.000000000               0.225112112               0.452859497               0.000000000               0.237556056               0.476429749               0.000000000               0.250000000               0.500000000               0.000000000               0.038607862               0.127273065               0.000000000               0.047913621               0.150568498               0.000000000               0.057219379               0.173863932               0.000000000               0.066525138               0.197159365               0.000000000               0.075830897               0.220454798               0.000000000               0.085136655               0.243750232               0.000000000               0.094442414               0.267045665               0.000000000               0.103748172               0.290341099               0.000000000               0.113053931               0.313636532               0.000000000               0.122359690               0.336931966               0.000000000               0.131665448               0.360227399               0.000000000               0.140971207               0.383522833               0.000000000               0.150276966               0.406818266               0.000000000               0.159582724               0.430113700               0.000000000               0.168888483               0.453409133               0.000000000               0.178194241               0.476704567               0.000000000               0.187500000               0.500000000               0.000000000               0.025947013               0.130444442               0.000000000               0.032137825               0.153541665               0.000000000               0.038328636               0.176638887               0.000000000               0.044519448               0.199736109               0.000000000               0.050710260               0.222833332               0.000000000               0.056901071               0.245930554               0.000000000               0.063091883               0.269027776               0.000000000               0.069282695               0.292124999               0.000000000               0.075473506               0.315222221               0.000000000               0.081664318               0.338319444               0.000000000               0.087855130               0.361416666               0.000000000               0.094045942               0.384513888               0.000000000               0.100236753               0.407611111               0.000000000               0.106427565               0.430708333               0.000000000               0.112618377               0.453805555               0.000000000               0.118809188               0.476902778               0.000000000               0.125000000               0.500000000               0.000000000               0.013036280               0.132359569               0.000000000               0.016127762               0.155337096               0.000000000               0.019219245               0.178314623               0.000000000               0.022310727               0.201292150               0.000000000               0.025402210               0.224269676               0.000000000               0.028493692               0.247247203               0.000000000               0.031585175               0.270224730               0.000000000               0.034676657               0.293202257               0.000000000               0.037768140               0.316179784               0.000000000               0.040859622               0.339157311               0.000000000               0.043951105               0.362134838               0.000000000               0.047042587               0.385112365               0.000000000               0.050134070               0.408089892               0.000000000               0.053225552               0.431067419               0.000000000               0.056317035               0.454044946               0.000000000               0.059408517               0.477022473               0.000000000               0.062500000               0.500000000               0.000000000               0.000000000               0.133000000               0.000000000               0.000000000               0.155937500               0.000000000               0.000000000               0.178875000               0.000000000               0.000000000               0.201812500               0.000000000               0.000000000               0.224750000               0.000000000               0.000000000               0.247687500               0.000000000               0.000000000               0.270625000               0.000000000               0.000000000               0.293562500               0.000000000               0.000000000               0.316500000               0.000000000               0.000000000               0.339437500               0.000000000               0.000000000               0.362375000               0.000000000               0.000000000               0.385312500               0.000000000               0.000000000               0.408250000               0.000000000               0.000000000               0.431187500               0.000000000               0.000000000               0.454125000               0.000000000               0.000000000               0.477062500               0.000000000               0.000000000               0.500000000               0.000000000               0.133000000               0.000000000               0.000000000               0.155937500               0.000000000               0.000000000               0.178875000               0.000000000               0.000000000               0.201812500               0.000000000               0.000000000               0.224750000               0.000000000               0.000000000               0.247687500               0.000000000               0.000000000               0.270625000               0.000000000               0.000000000               0.293562500               0.000000000               0.000000000               0.316500000               0.000000000               0.000000000               0.339437500               0.000000000               0.000000000               0.362375000               0.000000000               0.000000000               0.385312500               0.000000000               0.000000000               0.408250000               0.000000000               0.000000000               0.431187500               0.000000000               0.000000000               0.454125000               0.000000000               0.000000000               0.477062500               0.000000000               0.000000000               0.500000000               0.000000000               0.000000000               0.132359569              -0.013036280               0.000000000               0.155337096              -0.016127762               0.000000000               0.178314623              -0.019219245               0.000000000               0.201292150              -0.022310727               0.000000000               0.224269676              -0.025402210               0.000000000               0.247247203              -0.028493692               0.000000000               0.270224730              -0.031585175               0.000000000               0.293202257              -0.034676657               0.000000000               0.316179784              -0.037768140               0.000000000               0.339157311              -0.040859622               0.000000000               0.362134838              -0.043951105               0.000000000               0.385112365              -0.047042587               0.000000000               0.408089892              -0.050134070               0.000000000               0.431067419              -0.053225552               0.000000000               0.454044946              -0.056317035               0.000000000               0.477022473              -0.059408517               0.000000000               0.500000000              -0.062500000               0.000000000               0.130444442              -0.025947013               0.000000000               0.153541665              -0.032137825               0.000000000               0.176638887              -0.038328636               0.000000000               0.199736109              -0.044519448               0.000000000               0.222833332              -0.050710260               0.000000000               0.245930554              -0.056901071               0.000000000               0.269027776              -0.063091883               0.000000000               0.292124999              -0.069282695               0.000000000               0.315222221              -0.075473506               0.000000000               0.338319444              -0.081664318               0.000000000               0.361416666              -0.087855130               0.000000000               0.384513888              -0.094045942               0.000000000               0.407611111              -0.100236753               0.000000000               0.430708333              -0.106427565               0.000000000               0.453805555              -0.112618377               0.000000000               0.476902778              -0.118809188               0.000000000               0.500000000              -0.125000000               0.000000000               0.127273065              -0.038607862               0.000000000               0.150568498              -0.047913621               0.000000000               0.173863932              -0.057219379               0.000000000               0.197159365              -0.066525138               0.000000000               0.220454798              -0.075830897               0.000000000               0.243750232              -0.085136655               0.000000000               0.267045665              -0.094442414               0.000000000               0.290341099              -0.103748172               0.000000000               0.313636532              -0.113053931               0.000000000               0.336931966              -0.122359690               0.000000000               0.360227399              -0.131665448               0.000000000               0.383522833              -0.140971207               0.000000000               0.406818266              -0.150276966               0.000000000               0.430113700              -0.159582724               0.000000000               0.453409133              -0.168888483               0.000000000               0.476704567              -0.178194241               0.000000000               0.500000000              -0.187500000               0.000000000               0.122875978              -0.050896897               0.000000000               0.146446229              -0.063340840               0.000000000               0.170016481              -0.075784784               0.000000000               0.193586732              -0.088228728               0.000000000               0.217156983              -0.100672672               0.000000000               0.240727235              -0.113116616               0.000000000               0.264297486              -0.125560560               0.000000000               0.287867738              -0.138004504               0.000000000               0.311437989              -0.150448448               0.000000000               0.335008240              -0.162892392               0.000000000               0.358578492              -0.175336336               0.000000000               0.382148743              -0.187780280               0.000000000               0.405718994              -0.200224224               0.000000000               0.429289246              -0.212668168               0.000000000               0.452859497              -0.225112112               0.000000000               0.476429749              -0.237556056               0.000000000               0.500000000              -0.250000000               0.000000000               0.117295528              -0.062695766               0.000000000               0.141214558              -0.078308531               0.000000000               0.165133587              -0.093921295               0.000000000               0.189052617              -0.109534060               0.000000000               0.212971646              -0.125146824               0.000000000               0.236890676              -0.140759589               0.000000000               0.260809705              -0.156372354               0.000000000               0.284728735              -0.171985118               0.000000000               0.308647764              -0.187597883               0.000000000               0.332566794              -0.203210648               0.000000000               0.356485823              -0.218823412               0.000000000               0.380404853              -0.234436177               0.000000000               0.404323882              -0.250048941               0.000000000               0.428242912              -0.265661706               0.000000000               0.452161941              -0.281274471               0.000000000               0.476080971              -0.296887235               0.000000000               0.500000000              -0.312500000               0.000000000               0.110585458              -0.073890841               0.000000000               0.134923867              -0.092710163               0.000000000               0.159262276              -0.111529486               0.000000000               0.183600685              -0.130348808               0.000000000               0.207939094              -0.149168131               0.000000000               0.232277503              -0.167987453               0.000000000               0.256615912              -0.186806776               0.000000000               0.280954320              -0.205626098               0.000000000               0.305292729              -0.224445420               0.000000000               0.329631138              -0.243264743               0.000000000               0.353969547              -0.262084065               0.000000000               0.378307956              -0.280903388               0.000000000               0.402646365              -0.299722710               0.000000000               0.426984773              -0.318542033               0.000000000               0.451323182              -0.337361355               0.000000000               0.475661591              -0.356180678               0.000000000               0.500000000              -0.375000000               0.000000000               0.102810390              -0.084374307               0.000000000               0.127634741              -0.106444663               0.000000000               0.152459092              -0.128515018               0.000000000               0.177283442              -0.150585374               0.000000000               0.202107793              -0.172655730               0.000000000               0.226932143              -0.194726086               0.000000000               0.251756494              -0.216796442               0.000000000               0.276580845              -0.238866798               0.000000000               0.301405195              -0.260937153               0.000000000               0.326229546              -0.283007509               0.000000000               0.351053896              -0.305077865               0.000000000               0.375878247              -0.327148221               0.000000000               0.400702598              -0.349218577               0.000000000               0.425526948              -0.371288933               0.000000000               0.450351299              -0.393359288               0.000000000               0.475175649              -0.415429644               0.000000000               0.500000000              -0.437500000               0.000000000               0.094045202              -0.094045202               0.000000000               0.119417377              -0.119417377               0.000000000               0.144789552              -0.144789552               0.000000000               0.170161727              -0.170161727               0.000000000               0.195533901              -0.195533901               0.000000000               0.220906076              -0.220906076               0.000000000               0.246278251              -0.246278251               0.000000000               0.271650426              -0.271650426               0.000000000               0.297022601              -0.297022601               0.000000000               0.322394776              -0.322394776               0.000000000               0.347766951              -0.347766951               0.000000000               0.373139126              -0.373139126               0.000000000               0.398511300              -0.398511300               0.000000000               0.423883475              -0.423883475               0.000000000               0.449255650              -0.449255650               0.000000000               0.474627825              -0.474627825               0.000000000               0.500000000              -0.500000000               0.000000000               0.084374307              -0.102810390               0.000000000               0.106444663              -0.127634741               0.000000000               0.128515018              -0.152459092               0.000000000               0.150585374              -0.177283442               0.000000000               0.172655730              -0.202107793               0.000000000               0.194726086              -0.226932143               0.000000000               0.216796442              -0.251756494               0.000000000               0.238866798              -0.276580845               0.000000000               0.260937153              -0.301405195               0.000000000               0.283007509              -0.326229546               0.000000000               0.305077865              -0.351053896               0.000000000               0.327148221              -0.375878247               0.000000000               0.349218577              -0.400702598               0.000000000               0.371288933              -0.425526948               0.000000000               0.393359288              -0.450351299               0.000000000               0.415429644              -0.475175649               0.000000000               0.437500000              -0.500000000               0.000000000               0.073890841              -0.110585458               0.000000000               0.092710163              -0.134923867               0.000000000               0.111529486              -0.159262276               0.000000000               0.130348808              -0.183600685               0.000000000               0.149168131              -0.207939094               0.000000000               0.167987453              -0.232277503               0.000000000               0.186806776              -0.256615912               0.000000000               0.205626098              -0.280954320               0.000000000               0.224445420              -0.305292729               0.000000000               0.243264743              -0.329631138               0.000000000               0.262084065              -0.353969547               0.000000000               0.280903388              -0.378307956               0.000000000               0.299722710              -0.402646365               0.000000000               0.318542033              -0.426984773               0.000000000               0.337361355              -0.451323182               0.000000000               0.356180678              -0.475661591               0.000000000               0.375000000              -0.500000000               0.000000000               0.062695766              -0.117295528               0.000000000               0.078308531              -0.141214558               0.000000000               0.093921295              -0.165133587               0.000000000               0.109534060              -0.189052617               0.000000000               0.125146824              -0.212971646               0.000000000               0.140759589              -0.236890676               0.000000000               0.156372354              -0.260809705               0.000000000               0.171985118              -0.284728735               0.000000000               0.187597883              -0.308647764               0.000000000               0.203210648              -0.332566794               0.000000000               0.218823412              -0.356485823               0.000000000               0.234436177              -0.380404853               0.000000000               0.250048941              -0.404323882               0.000000000               0.265661706              -0.428242912               0.000000000               0.281274471              -0.452161941               0.000000000               0.296887235              -0.476080971               0.000000000               0.312500000              -0.500000000               0.000000000               0.050896897              -0.122875978               0.000000000               0.063340840              -0.146446229               0.000000000               0.075784784              -0.170016481               0.000000000               0.088228728              -0.193586732               0.000000000               0.100672672              -0.217156983               0.000000000               0.113116616              -0.240727235               0.000000000               0.125560560              -0.264297486               0.000000000               0.138004504              -0.287867738               0.000000000               0.150448448              -0.311437989               0.000000000               0.162892392              -0.335008240               0.000000000               0.175336336              -0.358578492               0.000000000               0.187780280              -0.382148743               0.000000000               0.200224224              -0.405718994               0.000000000               0.212668168              -0.429289246               0.000000000               0.225112112              -0.452859497               0.000000000               0.237556056              -0.476429749               0.000000000               0.250000000              -0.500000000               0.000000000               0.038607862              -0.127273065               0.000000000               0.047913621              -0.150568498               0.000000000               0.057219379              -0.173863932               0.000000000               0.066525138              -0.197159365               0.000000000               0.075830897              -0.220454798               0.000000000               0.085136655              -0.243750232               0.000000000               0.094442414              -0.267045665               0.000000000               0.103748172              -0.290341099               0.000000000               0.113053931              -0.313636532               0.000000000               0.122359690              -0.336931966               0.000000000               0.131665448              -0.360227399               0.000000000               0.140971207              -0.383522833               0.000000000               0.150276966              -0.406818266               0.000000000               0.159582724              -0.430113700               0.000000000               0.168888483              -0.453409133               0.000000000               0.178194241              -0.476704567               0.000000000               0.187500000              -0.500000000               0.000000000               0.025947013              -0.130444442               0.000000000               0.032137825              -0.153541665               0.000000000               0.038328636              -0.176638887               0.000000000               0.044519448              -0.199736109               0.000000000               0.050710260              -0.222833332               0.000000000               0.056901071              -0.245930554               0.000000000               0.063091883              -0.269027776               0.000000000               0.069282695              -0.292124999               0.000000000               0.075473506              -0.315222221               0.000000000               0.081664318              -0.338319444               0.000000000               0.087855130              -0.361416666               0.000000000               0.094045942              -0.384513888               0.000000000               0.100236753              -0.407611111               0.000000000               0.106427565              -0.430708333               0.000000000               0.112618377              -0.453805555               0.000000000               0.118809188              -0.476902778               0.000000000               0.125000000              -0.500000000               0.000000000               0.013036280              -0.132359569               0.000000000               0.016127762              -0.155337096               0.000000000               0.019219245              -0.178314623               0.000000000               0.022310727              -0.201292150               0.000000000               0.025402210              -0.224269676               0.000000000               0.028493692              -0.247247203               0.000000000               0.031585175              -0.270224730               0.000000000               0.034676657              -0.293202257               0.000000000               0.037768140              -0.316179784               0.000000000               0.040859622              -0.339157311               0.000000000               0.043951105              -0.362134838               0.000000000               0.047042587              -0.385112365               0.000000000               0.050134070              -0.408089892               0.000000000               0.053225552              -0.431067419               0.000000000               0.056317035              -0.454044946               0.000000000               0.059408517              -0.477022473               0.000000000               0.062500000              -0.500000000               0.000000000               0.000000000              -0.133000000               0.000000000               0.000000000              -0.155937500               0.000000000               0.000000000              -0.178875000               0.000000000               0.000000000              -0.201812500               0.000000000               0.000000000              -0.224750000               0.000000000               0.000000000              -0.247687500               0.000000000               0.000000000              -0.270625000               0.000000000               0.000000000              -0.293562500               0.000000000               0.000000000              -0.316500000               0.000000000               0.000000000              -0.339437500               0.000000000               0.000000000              -0.362375000               0.000000000               0.000000000              -0.385312500               0.000000000               0.000000000              -0.408250000               0.000000000               0.000000000              -0.431187500               0.000000000               0.000000000              -0.454125000               0.000000000               0.000000000              -0.477062500               0.000000000               0.000000000              -0.500000000               0.000000000              -0.133000000               0.000000000               0.000000000              -0.155937500               0.000000000               0.000000000              -0.178875000               0.000000000               0.000000000              -0.201812500               0.000000000               0.000000000              -0.224750000               0.000000000               0.000000000              -0.247687500               0.000000000               0.000000000              -0.270625000               0.000000000               0.000000000              -0.293562500               0.000000000               0.000000000              -0.316500000               0.000000000               0.000000000              -0.339437500               0.000000000               0.000000000              -0.362375000               0.000000000               0.000000000              -0.385312500               0.000000000               0.000000000              -0.408250000               0.000000000               0.000000000              -0.431187500               0.000000000               0.000000000              -0.454125000               0.000000000               0.000000000              -0.477062500               0.000000000               0.000000000              -0.500000000               0.000000000               0.000000000              -0.132359569              -0.013036280               0.000000000              -0.155337096              -0.016127762               0.000000000              -0.178314623              -0.019219245               0.000000000              -0.201292150              -0.022310727               0.000000000              -0.224269676              -0.025402210               0.000000000              -0.247247203              -0.028493692               0.000000000              -0.270224730              -0.031585175               0.000000000              -0.293202257              -0.034676657               0.000000000              -0.316179784              -0.037768140               0.000000000              -0.339157311              -0.040859622               0.000000000              -0.362134838              -0.043951105               0.000000000              -0.385112365              -0.047042587               0.000000000              -0.408089892              -0.050134070               0.000000000              -0.431067419              -0.053225552               0.000000000              -0.454044946              -0.056317035               0.000000000              -0.477022473              -0.059408517               0.000000000              -0.500000000              -0.062500000               0.000000000              -0.130444442              -0.025947013               0.000000000              -0.153541665              -0.032137825               0.000000000              -0.176638887              -0.038328636               0.000000000              -0.199736109              -0.044519448               0.000000000              -0.222833332              -0.050710260               0.000000000              -0.245930554              -0.056901071               0.000000000              -0.269027776              -0.063091883               0.000000000              -0.292124999              -0.069282695               0.000000000              -0.315222221              -0.075473506               0.000000000              -0.338319444              -0.081664318               0.000000000              -0.361416666              -0.087855130               0.000000000              -0.384513888              -0.094045942               0.000000000              -0.407611111              -0.100236753               0.000000000              -0.430708333              -0.106427565               0.000000000              -0.453805555              -0.112618377               0.000000000              -0.476902778              -0.118809188               0.000000000              -0.500000000              -0.125000000               0.000000000              -0.127273065              -0.038607862               0.000000000              -0.150568498              -0.047913621               0.000000000              -0.173863932              -0.057219379               0.000000000              -0.197159365              -0.066525138               0.000000000              -0.220454798              -0.075830897               0.000000000              -0.243750232              -0.085136655               0.000000000              -0.267045665              -0.094442414               0.000000000              -0.290341099              -0.103748172               0.000000000              -0.313636532              -0.113053931               0.000000000              -0.336931966              -0.122359690               0.000000000              -0.360227399              -0.131665448               0.000000000              -0.383522833              -0.140971207               0.000000000              -0.406818266              -0.150276966               0.000000000              -0.430113700              -0.159582724               0.000000000              -0.453409133              -0.168888483               0.000000000              -0.476704567              -0.178194241               0.000000000              -0.500000000              -0.187500000               0.000000000              -0.122875978              -0.050896897               0.000000000              -0.146446229              -0.063340840               0.000000000              -0.170016481              -0.075784784               0.000000000              -0.193586732              -0.088228728               0.000000000              -0.217156983              -0.100672672               0.000000000              -0.240727235              -0.113116616               0.000000000              -0.264297486              -0.125560560               0.000000000              -0.287867738              -0.138004504               0.000000000              -0.311437989              -0.150448448               0.000000000              -0.335008240              -0.162892392               0.000000000              -0.358578492              -0.175336336               0.000000000              -0.382148743              -0.187780280               0.000000000              -0.405718994              -0.200224224               0.000000000              -0.429289246              -0.212668168               0.000000000              -0.452859497              -0.225112112               0.000000000              -0.476429749              -0.237556056               0.000000000              -0.500000000              -0.250000000               0.000000000              -0.117295528              -0.062695766               0.000000000              -0.141214558              -0.078308531               0.000000000              -0.165133587              -0.093921295               0.000000000              -0.189052617              -0.109534060               0.000000000              -0.212971646              -0.125146824               0.000000000              -0.236890676              -0.140759589               0.000000000              -0.260809705              -0.156372354               0.000000000              -0.284728735              -0.171985118               0.000000000              -0.308647764              -0.187597883               0.000000000              -0.332566794              -0.203210648               0.000000000              -0.356485823              -0.218823412               0.000000000              -0.380404853              -0.234436177               0.000000000              -0.404323882              -0.250048941               0.000000000              -0.428242912              -0.265661706               0.000000000              -0.452161941              -0.281274471               0.000000000              -0.476080971              -0.296887235               0.000000000              -0.500000000              -0.312500000               0.000000000              -0.110585458              -0.073890841               0.000000000              -0.134923867              -0.092710163               0.000000000              -0.159262276              -0.111529486               0.000000000              -0.183600685              -0.130348808               0.000000000              -0.207939094              -0.149168131               0.000000000              -0.232277503              -0.167987453               0.000000000              -0.256615912              -0.186806776               0.000000000              -0.280954320              -0.205626098               0.000000000              -0.305292729              -0.224445420               0.000000000              -0.329631138              -0.243264743               0.000000000              -0.353969547              -0.262084065               0.000000000              -0.378307956              -0.280903388               0.000000000              -0.402646365              -0.299722710               0.000000000              -0.426984773              -0.318542033               0.000000000              -0.451323182              -0.337361355               0.000000000              -0.475661591              -0.356180678               0.000000000              -0.500000000              -0.375000000               0.000000000              -0.102810390              -0.084374307               0.000000000              -0.127634741              -0.106444663               0.000000000              -0.152459092              -0.128515018               0.000000000              -0.177283442              -0.150585374               0.000000000              -0.202107793              -0.172655730               0.000000000              -0.226932143              -0.194726086               0.000000000              -0.251756494              -0.216796442               0.000000000              -0.276580845              -0.238866798               0.000000000              -0.301405195              -0.260937153               0.000000000              -0.326229546              -0.283007509               0.000000000              -0.351053896              -0.305077865               0.000000000              -0.375878247              -0.327148221               0.000000000              -0.400702598              -0.349218577               0.000000000              -0.425526948              -0.371288933               0.000000000              -0.450351299              -0.393359288               0.000000000              -0.475175649              -0.415429644               0.000000000              -0.500000000              -0.437500000               0.000000000              -0.094045202              -0.094045202               0.000000000              -0.119417377              -0.119417377               0.000000000              -0.144789552              -0.144789552               0.000000000              -0.170161727              -0.170161727               0.000000000              -0.195533901              -0.195533901               0.000000000              -0.220906076              -0.220906076               0.000000000              -0.246278251              -0.246278251               0.000000000              -0.271650426              -0.271650426               0.000000000              -0.297022601              -0.297022601               0.000000000              -0.322394776              -0.322394776               0.000000000              -0.347766951              -0.347766951               0.000000000              -0.373139126              -0.373139126               0.000000000              -0.398511300              -0.398511300               0.000000000              -0.423883475              -0.423883475               0.000000000              -0.449255650              -0.449255650               0.000000000              -0.474627825              -0.474627825               0.000000000              -0.500000000              -0.500000000               0.000000000              -0.084374307              -0.102810390               0.000000000              -0.106444663              -0.127634741               0.000000000              -0.128515018              -0.152459092               0.000000000              -0.150585374              -0.177283442               0.000000000              -0.172655730              -0.202107793               0.000000000              -0.194726086              -0.226932143               0.000000000              -0.216796442              -0.251756494               0.000000000              -0.238866798              -0.276580845               0.000000000              -0.260937153              -0.301405195               0.000000000              -0.283007509              -0.326229546               0.000000000              -0.305077865              -0.351053896               0.000000000              -0.327148221              -0.375878247               0.000000000              -0.349218577              -0.400702598               0.000000000              -0.371288933              -0.425526948               0.000000000              -0.393359288              -0.450351299               0.000000000              -0.415429644              -0.475175649               0.000000000              -0.437500000              -0.500000000               0.000000000              -0.073890841              -0.110585458               0.000000000              -0.092710163              -0.134923867               0.000000000              -0.111529486              -0.159262276               0.000000000              -0.130348808              -0.183600685               0.000000000              -0.149168131              -0.207939094               0.000000000              -0.167987453              -0.232277503               0.000000000              -0.186806776              -0.256615912               0.000000000              -0.205626098              -0.280954320               0.000000000              -0.224445420              -0.305292729               0.000000000              -0.243264743              -0.329631138               0.000000000              -0.262084065              -0.353969547               0.000000000              -0.280903388              -0.378307956               0.000000000              -0.299722710              -0.402646365               0.000000000              -0.318542033              -0.426984773               0.000000000              -0.337361355              -0.451323182               0.000000000              -0.356180678              -0.475661591               0.000000000              -0.375000000              -0.500000000               0.000000000              -0.062695766              -0.117295528               0.000000000              -0.078308531              -0.141214558               0.000000000              -0.093921295              -0.165133587               0.000000000              -0.109534060              -0.189052617               0.000000000              -0.125146824              -0.212971646               0.000000000              -0.140759589              -0.236890676               0.000000000              -0.156372354              -0.260809705               0.000000000              -0.171985118              -0.284728735               0.000000000              -0.187597883              -0.308647764               0.000000000              -0.203210648              -0.332566794               0.000000000              -0.218823412              -0.356485823               0.000000000              -0.234436177              -0.380404853               0.000000000              -0.250048941              -0.404323882               0.000000000              -0.265661706              -0.428242912               0.000000000              -0.281274471              -0.452161941               0.000000000              -0.296887235              -0.476080971               0.000000000              -0.312500000              -0.500000000               0.000000000              -0.050896897              -0.122875978               0.000000000              -0.063340840              -0.146446229               0.000000000              -0.075784784              -0.170016481               0.000000000              -0.088228728              -0.193586732               0.000000000              -0.100672672              -0.217156983               0.000000000              -0.113116616              -0.240727235               0.000000000              -0.125560560              -0.264297486               0.000000000              -0.138004504              -0.287867738               0.000000000              -0.150448448              -0.311437989               0.000000000              -0.162892392              -0.335008240               0.000000000              -0.175336336              -0.358578492               0.000000000              -0.187780280              -0.382148743               0.000000000              -0.200224224              -0.405718994               0.000000000              -0.212668168              -0.429289246               0.000000000              -0.225112112              -0.452859497               0.000000000              -0.237556056              -0.476429749               0.000000000              -0.250000000              -0.500000000               0.000000000              -0.038607862              -0.127273065               0.000000000              -0.047913621              -0.150568498               0.000000000              -0.057219379              -0.173863932               0.000000000              -0.066525138              -0.197159365               0.000000000              -0.075830897              -0.220454798               0.000000000              -0.085136655              -0.243750232               0.000000000              -0.094442414              -0.267045665               0.000000000              -0.103748172              -0.290341099               0.000000000              -0.113053931              -0.313636532               0.000000000              -0.122359690              -0.336931966               0.000000000              -0.131665448              -0.360227399               0.000000000              -0.140971207              -0.383522833               0.000000000              -0.150276966              -0.406818266               0.000000000              -0.159582724              -0.430113700               0.000000000              -0.168888483              -0.453409133               0.000000000              -0.178194241              -0.476704567               0.000000000              -0.187500000              -0.500000000               0.000000000              -0.025947013              -0.130444442               0.000000000              -0.032137825              -0.153541665               0.000000000              -0.038328636              -0.176638887               0.000000000              -0.044519448              -0.199736109               0.000000000              -0.050710260              -0.222833332               0.000000000              -0.056901071              -0.245930554               0.000000000              -0.063091883              -0.269027776               0.000000000              -0.069282695              -0.292124999               0.000000000              -0.075473506              -0.315222221               0.000000000              -0.081664318              -0.338319444               0.000000000              -0.087855130              -0.361416666               0.000000000              -0.094045942              -0.384513888               0.000000000              -0.100236753              -0.407611111               0.000000000              -0.106427565              -0.430708333               0.000000000              -0.112618377              -0.453805555               0.000000000              -0.118809188              -0.476902778               0.000000000              -0.125000000              -0.500000000               0.000000000              -0.013036280              -0.132359569               0.000000000              -0.016127762              -0.155337096               0.000000000              -0.019219245              -0.178314623               0.000000000              -0.022310727              -0.201292150               0.000000000              -0.025402210              -0.224269676               0.000000000              -0.028493692              -0.247247203               0.000000000              -0.031585175              -0.270224730               0.000000000              -0.034676657              -0.293202257               0.000000000              -0.037768140              -0.316179784               0.000000000              -0.040859622              -0.339157311               0.000000000              -0.043951105              -0.362134838               0.000000000              -0.047042587              -0.385112365               0.000000000              -0.050134070              -0.408089892               0.000000000              -0.053225552              -0.431067419               0.000000000              -0.056317035              -0.454044946               0.000000000              -0.059408517              -0.477022473               0.000000000              -0.062500000              -0.500000000               0.000000000               0.000000000              -0.133000000               0.000000000               0.000000000              -0.155937500               0.000000000               0.000000000              -0.178875000               0.000000000               0.000000000              -0.201812500               0.000000000               0.000000000              -0.224750000               0.000000000               0.000000000              -0.247687500               0.000000000               0.000000000              -0.270625000               0.000000000               0.000000000              -0.293562500               0.000000000               0.000000000              -0.316500000               0.000000000               0.000000000              -0.339437500               0.000000000               0.000000000              -0.362375000               0.000000000               0.000000000              -0.385312500               0.000000000               0.000000000              -0.408250000               0.000000000               0.000000000              -0.431187500               0.000000000               0.000000000              -0.454125000               0.000000000               0.000000000              -0.477062500               0.000000000               0.000000000              -0.500000000               0.000000000              -0.133000000               0.000000000               0.000000000              -0.155937500               0.000000000               0.000000000              -0.178875000               0.000000000               0.000000000              -0.201812500               0.000000000               0.000000000              -0.224750000               0.000000000               0.000000000              -0.247687500               0.000000000               0.000000000              -0.270625000               0.000000000               0.000000000              -0.293562500               0.000000000               0.000000000              -0.316500000               0.000000000               0.000000000              -0.339437500               0.000000000               0.000000000              -0.362375000               0.000000000               0.000000000              -0.385312500               0.000000000               0.000000000              -0.408250000               0.000000000               0.000000000              -0.431187500               0.000000000               0.000000000              -0.454125000               0.000000000               0.000000000              -0.477062500               0.000000000               0.000000000              -0.500000000               0.000000000               0.000000000              -0.132359569               0.013036280               0.000000000              -0.155337096               0.016127762               0.000000000              -0.178314623               0.019219245               0.000000000              -0.201292150               0.022310727               0.000000000              -0.224269676               0.025402210               0.000000000              -0.247247203               0.028493692               0.000000000              -0.270224730               0.031585175               0.000000000              -0.293202257               0.034676657               0.000000000              -0.316179784               0.037768140               0.000000000              -0.339157311               0.040859622               0.000000000              -0.362134838               0.043951105               0.000000000              -0.385112365               0.047042587               0.000000000              -0.408089892               0.050134070               0.000000000              -0.431067419               0.053225552               0.000000000              -0.454044946               0.056317035               0.000000000              -0.477022473               0.059408517               0.000000000              -0.500000000               0.062500000               0.000000000              -0.130444442               0.025947013               0.000000000              -0.153541665               0.032137825               0.000000000              -0.176638887               0.038328636               0.000000000              -0.199736109               0.044519448               0.000000000              -0.222833332               0.050710260               0.000000000              -0.245930554               0.056901071               0.000000000              -0.269027776               0.063091883               0.000000000              -0.292124999               0.069282695               0.000000000              -0.315222221               0.075473506               0.000000000              -0.338319444               0.081664318               0.000000000              -0.361416666               0.087855130               0.000000000              -0.384513888               0.094045942               0.000000000              -0.407611111               0.100236753               0.000000000              -0.430708333               0.106427565               0.000000000              -0.453805555               0.112618377               0.000000000              -0.476902778               0.118809188               0.000000000              -0.500000000               0.125000000               0.000000000              -0.127273065               0.038607862               0.000000000              -0.150568498               0.047913621               0.000000000              -0.173863932               0.057219379               0.000000000              -0.197159365               0.066525138               0.000000000              -0.220454798               0.075830897               0.000000000              -0.243750232               0.085136655               0.000000000              -0.267045665               0.094442414               0.000000000              -0.290341099               0.103748172               0.000000000              -0.313636532               0.113053931               0.000000000              -0.336931966               0.122359690               0.000000000              -0.360227399               0.131665448               0.000000000              -0.383522833               0.140971207               0.000000000              -0.406818266               0.150276966               0.000000000              -0.430113700               0.159582724               0.000000000              -0.453409133               0.168888483               0.000000000              -0.476704567               0.178194241               0.000000000              -0.500000000               0.187500000               0.000000000              -0.122875978               0.050896897               0.000000000              -0.146446229               0.063340840               0.000000000              -0.170016481               0.075784784               0.000000000              -0.193586732               0.088228728               0.000000000              -0.217156983               0.100672672               0.000000000              -0.240727235               0.113116616               0.000000000              -0.264297486               0.125560560               0.000000000              -0.287867738               0.138004504               0.000000000              -0.311437989               0.150448448               0.000000000              -0.335008240               0.162892392               0.000000000              -0.358578492               0.175336336               0.000000000              -0.382148743               0.187780280               0.000000000              -0.405718994               0.200224224               0.000000000              -0.429289246               0.212668168               0.000000000              -0.452859497               0.225112112               0.000000000              -0.476429749               0.237556056               0.000000000              -0.500000000               0.250000000               0.000000000              -0.117295528               0.062695766               0.000000000              -0.141214558               0.078308531               0.000000000              -0.165133587               0.093921295               0.000000000              -0.189052617               0.109534060               0.000000000              -0.212971646               0.125146824               0.000000000              -0.236890676               0.140759589               0.000000000              -0.260809705               0.156372354               0.000000000              -0.284728735               0.171985118               0.000000000              -0.308647764               0.187597883               0.000000000              -0.332566794               0.203210648               0.000000000              -0.356485823               0.218823412               0.000000000              -0.380404853               0.234436177               0.000000000              -0.404323882               0.250048941               0.000000000              -0.428242912               0.265661706               0.000000000              -0.452161941               0.281274471               0.000000000              -0.476080971               0.296887235               0.000000000              -0.500000000               0.312500000               0.000000000              -0.110585458               0.073890841               0.000000000              -0.134923867               0.092710163               0.000000000              -0.159262276               0.111529486               0.000000000              -0.183600685               0.130348808               0.000000000              -0.207939094               0.149168131               0.000000000              -0.232277503               0.167987453               0.000000000              -0.256615912               0.186806776               0.000000000              -0.280954320               0.205626098               0.000000000              -0.305292729               0.224445420               0.000000000              -0.329631138               0.243264743               0.000000000              -0.353969547               0.262084065               0.000000000              -0.378307956               0.280903388               0.000000000              -0.402646365               0.299722710               0.000000000              -0.426984773               0.318542033               0.000000000              -0.451323182               0.337361355               0.000000000              -0.475661591               0.356180678               0.000000000              -0.500000000               0.375000000               0.000000000              -0.102810390               0.084374307               0.000000000              -0.127634741               0.106444663               0.000000000              -0.152459092               0.128515018               0.000000000              -0.177283442               0.150585374               0.000000000              -0.202107793               0.172655730               0.000000000              -0.226932143               0.194726086               0.000000000              -0.251756494               0.216796442               0.000000000              -0.276580845               0.238866798               0.000000000              -0.301405195               0.260937153               0.000000000              -0.326229546               0.283007509               0.000000000              -0.351053896               0.305077865               0.000000000              -0.375878247               0.327148221               0.000000000              -0.400702598               0.349218577               0.000000000              -0.425526948               0.371288933               0.000000000              -0.450351299               0.393359288               0.000000000              -0.475175649               0.415429644               0.000000000              -0.500000000               0.437500000               0.000000000              -0.094045202               0.094045202               0.000000000              -0.119417377               0.119417377               0.000000000              -0.144789552               0.144789552               0.000000000              -0.170161727               0.170161727               0.000000000              -0.195533901               0.195533901               0.000000000              -0.220906076               0.220906076               0.000000000              -0.246278251               0.246278251               0.000000000              -0.271650426               0.271650426               0.000000000              -0.297022601               0.297022601               0.000000000              -0.322394776               0.322394776               0.000000000              -0.347766951               0.347766951               0.000000000              -0.373139126               0.373139126               0.000000000              -0.398511300               0.398511300               0.000000000              -0.423883475               0.423883475               0.000000000              -0.449255650               0.449255650               0.000000000              -0.474627825               0.474627825               0.000000000              -0.500000000               0.500000000               0.000000000              -0.084374307               0.102810390               0.000000000              -0.106444663               0.127634741               0.000000000              -0.128515018               0.152459092               0.000000000              -0.150585374               0.177283442               0.000000000              -0.172655730               0.202107793               0.000000000              -0.194726086               0.226932143               0.000000000              -0.216796442               0.251756494               0.000000000              -0.238866798               0.276580845               0.000000000              -0.260937153               0.301405195               0.000000000              -0.283007509               0.326229546               0.000000000              -0.305077865               0.351053896               0.000000000              -0.327148221               0.375878247               0.000000000              -0.349218577               0.400702598               0.000000000              -0.371288933               0.425526948               0.000000000              -0.393359288               0.450351299               0.000000000              -0.415429644               0.475175649               0.000000000              -0.437500000               0.500000000               0.000000000              -0.073890841               0.110585458               0.000000000              -0.092710163               0.134923867               0.000000000              -0.111529486               0.159262276               0.000000000              -0.130348808               0.183600685               0.000000000              -0.149168131               0.207939094               0.000000000              -0.167987453               0.232277503               0.000000000              -0.186806776               0.256615912               0.000000000              -0.205626098               0.280954320               0.000000000              -0.224445420               0.305292729               0.000000000              -0.243264743               0.329631138               0.000000000              -0.262084065               0.353969547               0.000000000              -0.280903388               0.378307956               0.000000000              -0.299722710               0.402646365               0.000000000              -0.318542033               0.426984773               0.000000000              -0.337361355               0.451323182               0.000000000              -0.356180678               0.475661591               0.000000000              -0.375000000               0.500000000               0.000000000              -0.062695766               0.117295528               0.000000000              -0.078308531               0.141214558               0.000000000              -0.093921295               0.165133587               0.000000000              -0.109534060               0.189052617               0.000000000              -0.125146824               0.212971646               0.000000000              -0.140759589               0.236890676               0.000000000              -0.156372354               0.260809705               0.000000000              -0.171985118               0.284728735               0.000000000              -0.187597883               0.308647764               0.000000000              -0.203210648               0.332566794               0.000000000              -0.218823412               0.356485823               0.000000000              -0.234436177               0.380404853               0.000000000              -0.250048941               0.404323882               0.000000000              -0.265661706               0.428242912               0.000000000              -0.281274471               0.452161941               0.000000000              -0.296887235               0.476080971               0.000000000              -0.312500000               0.500000000               0.000000000              -0.050896897               0.122875978               0.000000000              -0.063340840               0.146446229               0.000000000              -0.075784784               0.170016481               0.000000000              -0.088228728               0.193586732               0.000000000              -0.100672672               0.217156983               0.000000000              -0.113116616               0.240727235               0.000000000              -0.125560560               0.264297486               0.000000000              -0.138004504               0.287867738               0.000000000              -0.150448448               0.311437989               0.000000000              -0.162892392               0.335008240               0.000000000              -0.175336336               0.358578492               0.000000000              -0.187780280               0.382148743               0.000000000              -0.200224224               0.405718994               0.000000000              -0.212668168               0.429289246               0.000000000              -0.225112112               0.452859497               0.000000000              -0.237556056               0.476429749               0.000000000              -0.250000000               0.500000000               0.000000000              -0.038607862               0.127273065               0.000000000              -0.047913621               0.150568498               0.000000000              -0.057219379               0.173863932               0.000000000              -0.066525138               0.197159365               0.000000000              -0.075830897               0.220454798               0.000000000              -0.085136655               0.243750232               0.000000000              -0.094442414               0.267045665               0.000000000              -0.103748172               0.290341099               0.000000000              -0.113053931               0.313636532               0.000000000              -0.122359690               0.336931966               0.000000000              -0.131665448               0.360227399               0.000000000              -0.140971207               0.383522833               0.000000000              -0.150276966               0.406818266               0.000000000              -0.159582724               0.430113700               0.000000000              -0.168888483               0.453409133               0.000000000              -0.178194241               0.476704567               0.000000000              -0.187500000               0.500000000               0.000000000              -0.025947013               0.130444442               0.000000000              -0.032137825               0.153541665               0.000000000              -0.038328636               0.176638887               0.000000000              -0.044519448               0.199736109               0.000000000              -0.050710260               0.222833332               0.000000000              -0.056901071               0.245930554               0.000000000              -0.063091883               0.269027776               0.000000000              -0.069282695               0.292124999               0.000000000              -0.075473506               0.315222221               0.000000000              -0.081664318               0.338319444               0.000000000              -0.087855130               0.361416666               0.000000000              -0.094045942               0.384513888               0.000000000              -0.100236753               0.407611111               0.000000000              -0.106427565               0.430708333               0.000000000              -0.112618377               0.453805555               0.000000000              -0.118809188               0.476902778               0.000000000              -0.125000000               0.500000000               0.000000000              -0.013036280               0.132359569               0.000000000              -0.016127762               0.155337096               0.000000000              -0.019219245               0.178314623               0.000000000              -0.022310727               0.201292150               0.000000000              -0.025402210               0.224269676               0.000000000              -0.028493692               0.247247203               0.000000000              -0.031585175               0.270224730               0.000000000              -0.034676657               0.293202257               0.000000000              -0.037768140               0.316179784               0.000000000              -0.040859622               0.339157311               0.000000000              -0.043951105               0.362134838               0.000000000              -0.047042587               0.385112365               0.000000000              -0.050134070               0.408089892               0.000000000              -0.053225552               0.431067419               0.000000000              -0.056317035               0.454044946               0.000000000              -0.059408517               0.477022473               0.000000000              -0.062500000               0.500000000               0.000000000               0.000000000               0.133000000               0.000000000               0.000000000               0.155937500               0.000000000               0.000000000               0.178875000               0.000000000               0.000000000               0.201812500               0.000000000               0.000000000               0.224750000               0.000000000               0.000000000               0.247687500               0.000000000               0.000000000               0.270625000               0.000000000               0.000000000               0.293562500               0.000000000               0.000000000               0.316500000               0.000000000               0.000000000               0.339437500               0.000000000               0.000000000               0.362375000               0.000000000               0.000000000               0.385312500               0.000000000               0.000000000               0.408250000               0.000000000               0.000000000               0.431187500               0.000000000               0.000000000               0.454125000               0.000000000               0.000000000               0.477062500               0.000000000               0.000000000               0.500000000               0.000000000 </DataArray>
</Points>
<Cells>
<DataArray type="Int32"                                    Name="connectivity"                                                      NumberOfComponents=" 1" format="ascii">
         0          1         18         17          1          2         19         18          2          3         20         19          3          4         21         20          4          5         22         21          5          6         23         22          6          7         24         23          7          8         25         24          8          9         26         25          9         10         27         26         10         11         28         27         11         12         29         28         12         13         30         29         13         14         31         30         14         15         32         31         15         16         33         32         17         18         35         34         18         19         36         35         19         20         37         36         20         21         38         37         21         22         39         38         22         23         40         39         23         24         41         40         24         25         42         41         25         26         43         42         26         27         44         43         27         28         45         44         28         29         46         45         29         30         47         46         30         31         48         47         31         32         49         48         32         33         50         49         34         35         52         51         35         36         53         52         36         37         54         53         37         38         55         54         38         39         56         55         39         40         57         56         40         41         58         57         41         42         59         58         42         43         60         59         43         44         61         60         44         45         62         61         45         46         63         62         46         47         64         63         47         48         65         64         48         49         66         65         49         50         67         66         51         52         69         68         52         53         70         69         53         54         71         70         54         55         72         71         55         56         73         72         56         57         74         73         57         58         75         74         58         59         76         75         59         60         77         76         60         61         78         77         61         62         79         78         62         63         80         79         63         64         81         80         64         65         82         81         65         66         83         82         66         67         84         83         68         69         86         85         69         70         87         86         70         71         88         87         71         72         89         88         72         73         90         89         73         74         91         90         74         75         92         91         75         76         93         92         76         77         94         93         77         78         95         94         78         79         96         95         79         80         97         96         80         81         98         97         81         82         99         98         82         83        100         99         83         84        101        100         85         86        103        102         86         87        104        103         87         88        105        104         88         89        106        105         89         90        107        106         90         91        108        107         91         92        109        108         92         93        110        109         93         94        111        110         94         95        112        111         95         96        113        112         96         97        114        113         97         98        115        114         98         99        116        115         99        100        117        116        100        101        118        117        102        103        120        119        103        104        121        120        104        105        122        121        105        106        123        122        106        107        124        123        107        108        125        124        108        109        126        125        109        110        127        126        110        111        128        127        111        112        129        128        112        113        130        129        113        114        131        130        114        115        132        131        115        116        133        132        116        117        134        133        117        118        135        134        119        120        137        136        120        121        138        137        121        122        139        138        122        123        140        139        123        124        141        140        124        125        142        141        125        126        143        142        126        127        144        143        127        128        145        144        128        129        146        145        129        130        147        146        130        131        148        147        131        132        149        148        132        133        150        149        133        134        151        150        134        135        152        151        136        137        154        153        137        138        155        154        138        139        156        155        139        140        157        156        140        141        158        157        141        142        159        158        142        143        160        159        143        144        161        160        144        145        162        161        145        146        163        162        146        147        164        163        147        148        165        164        148        149        166        165        149        150        167        166        150        151        168        167        151        152        169        168        153        154        171        170        154        155        172        171        155        156        173        172        156        157        174        173        157        158        175        174        158        159        176        175        159        160        177        176        160        161        178        177        161        162        179        178        162        163        180        179        163        164        181        180        164        165        182        181        165        166        183        182        166        167        184        183        167        168        185        184        168        169        186        185        170        171        188        187        171        172        189        188        172        173        190        189        173        174        191        190        174        175        192        191        175        176        193        192        176        177        194        193        177        178        195        194        178        179        196        195        179        180        197        196        180        181        198        197        181        182        199        198        182        183        200        199        183        184        201        200        184        185        202        201        185        186        203        202        187        188        205        204        188        189        206        205        189        190        207        206        190        191        208        207        191        192        209        208        192        193        210        209        193        194        211        210        194        195        212        211        195        196        213        212        196        197        214        213        197        198        215        214        198        199        216        215        199        200        217        216        200        201        218        217        201        202        219        218        202        203        220        219        204        205        222        221        205        206        223        222        206        207        224        223        207        208        225        224        208        209        226        225        209        210        227        226        210        211        228        227        211        212        229        228        212        213        230        229        213        214        231        230        214        215        232        231        215        216        233        232        216        217        234        233        217        218        235        234        218        219        236        235        219        220        237        236        221        222        239        238        222        223        240        239        223        224        241        240        224        225        242        241        225        226        243        242        226        227        244        243        227        228        245        244        228        229        246        245        229        230        247        246        230        231        248        247        231        232        249        248        232        233        250        249        233        234        251        250        234        235        252        251        235        236        253        252        236        237        254        253        238        239        256        255        239        240        257        256        240        241        258        257        241        242        259        258        242        243        260        259        243        244        261        260        244        245        262        261        245        246        263        262        246        247        264        263        247        248        265        264        248        249        266        265        249        250        267        266        250        251        268        267        251        252        269        268        252        253        270        269        253        254        271        270        255        256        273        272        256        257        274        273        257        258        275        274        258        259        276        275        259        260        277        276        260        261        278        277        261        262        279        278        262        263        280        279        263        264        281        280        264        265        282        281        265        266        283        282        266        267        284        283        267        268        285        284        268        269        286        285        269        270        287        286        270        271        288        287        306        307          1          0        307        308          2          1        308        309          3          2        309        310          4          3        310        311          5          4        311        312          6          5        312        313          7          6        313        314          8          7        314        315          9          8        315        316         10          9        316        317         11         10        317        318         12         11        318        319         13         12        319        320         14         13        320        321         15         14        321        322         16         15        323        324        307        306        324        325        308        307        325        326        309        308        326        327        310        309        327        328        311        310        328        329        312        311        329        330        313        312        330        331        314        313        331        332        315        314        332        333        316        315        333        334        317        316        334        335        318        317        335        336        319        318        336        337        320        319        337        338        321        320        338        339        322        321        340        341        324        323        341        342        325        324        342        343        326        325        343        344        327        326        344        345        328        327        345        346        329        328        346        347        330        329        347        348        331        330        348        349        332        331        349        350        333        332        350        351        334        333        351        352        335        334        352        353        336        335        353        354        337        336        354        355        338        337        355        356        339        338        357        358        341        340        358        359        342        341        359        360        343        342        360        361        344        343        361        362        345        344        362        363        346        345        363        364        347        346        364        365        348        347        365        366        349        348        366        367        350        349        367        368        351        350        368        369        352        351        369        370        353        352        370        371        354        353        371        372        355        354        372        373        356        355        374        375        358        357        375        376        359        358        376        377        360        359        377        378        361        360        378        379        362        361        379        380        363        362        380        381        364        363        381        382        365        364        382        383        366        365        383        384        367        366        384        385        368        367        385        386        369        368        386        387        370        369        387        388        371        370        388        389        372        371        389        390        373        372        391        392        375        374        392        393        376        375        393        394        377        376        394        395        378        377        395        396        379        378        396        397        380        379        397        398        381        380        398        399        382        381        399        400        383        382        400        401        384        383        401        402        385        384        402        403        386        385        403        404        387        386        404        405        388        387        405        406        389        388        406        407        390        389        408        409        392        391        409        410        393        392        410        411        394        393        411        412        395        394        412        413        396        395        413        414        397        396        414        415        398        397        415        416        399        398        416        417        400        399        417        418        401        400        418        419        402        401        419        420        403        402        420        421        404        403        421        422        405        404        422        423        406        405        423        424        407        406        425        426        409        408        426        427        410        409        427        428        411        410        428        429        412        411        429        430        413        412        430        431        414        413        431        432        415        414        432        433        416        415        433        434        417        416        434        435        418        417        435        436        419        418        436        437        420        419        437        438        421        420        438        439        422        421        439        440        423        422        440        441        424        423        442        443        426        425        443        444        427        426        444        445        428        427        445        446        429        428        446        447        430        429        447        448        431        430        448        449        432        431        449        450        433        432        450        451        434        433        451        452        435        434        452        453        436        435        453        454        437        436        454        455        438        437        455        456        439        438        456        457        440        439        457        458        441        440        459        460        443        442        460        461        444        443        461        462        445        444        462        463        446        445        463        464        447        446        464        465        448        447        465        466        449        448        466        467        450        449        467        468        451        450        468        469        452        451        469        470        453        452        470        471        454        453        471        472        455        454        472        473        456        455        473        474        457        456        474        475        458        457        476        477        460        459        477        478        461        460        478        479        462        461        479        480        463        462        480        481        464        463        481        482        465        464        482        483        466        465        483        484        467        466        484        485        468        467        485        486        469        468        486        487        470        469        487        488        471        470        488        489        472        471        489        490        473        472        490        491        474        473        491        492        475        474        493        494        477        476        494        495        478        477        495        496        479        478        496        497        480        479        497        498        481        480        498        499        482        481        499        500        483        482        500        501        484        483        501        502        485        484        502        503        486        485        503        504        487        486        504        505        488        487        505        506        489        488        506        507        490        489        507        508        491        490        508        509        492        491        510        511        494        493        511        512        495        494        512        513        496        495        513        514        497        496        514        515        498        497        515        516        499        498        516        517        500        499        517        518        501        500        518        519        502        501        519        520        503        502        520        521        504        503        521        522        505        504        522        523        506        505        523        524        507        506        524        525        508        507        525        526        509        508        527        528        511        510        528        529        512        511        529        530        513        512        530        531        514        513        531        532        515        514        532        533        516        515        533        534        517        516        534        535        518        517        535        536        519        518        536        537        520        519        537        538        521        520        538        539        522        521        539        540        523        522        540        541        524        523        541        542        525        524        542        543        526        525        544        545        528        527        545        546        529        528        546        547        530        529        547        548        531        530        548        549        532        531        549        550        533        532        550        551        534        533        551        552        535        534        552        553        536        535        553        554        537        536        554        555        538        537        555        556        539        538        556        557        540        539        557        558        541        540        558        559        542        541        559        560        543        542        561        562        545        544        562        563        546        545        563        564        547        546        564        565        548        547        565        566        549        548        566        567        550        549        567        568        551        550        568        569        552        551        569        570        553        552        570        571        554        553        571        572        555        554        572        573        556        555        573        574        557        556        574        575        558        557        575        576        559        558        576        577        560        559        578        579        596        595        579        580        597        596        580        581        598        597        581        582        599        598        582        583        600        599        583        584        601        600        584        585        602        601        585        586        603        602        586        587        604        603        587        588        605        604        588        589        606        605        589        590        607        606        590        591        608        607        591        592        609        608        592        593        610        609        593        594        611        610        595        596        613        612        596        597        614        613        597        598        615        614        598        599        616        615        599        600        617        616        600        601        618        617        601        602        619        618        602        603        620        619        603        604        621        620        604        605        622        621        605        606        623        622        606        607        624        623        607        608        625        624        608        609        626        625        609        610        627        626        610        611        628        627        612        613        630        629        613        614        631        630        614        615        632        631        615        616        633        632        616        617        634        633        617        618        635        634        618        619        636        635        619        620        637        636        620        621        638        637        621        622        639        638        622        623        640        639        623        624        641        640        624        625        642        641        625        626        643        642        626        627        644        643        627        628        645        644        629        630        647        646        630        631        648        647        631        632        649        648        632        633        650        649        633        634        651        650        634        635        652        651        635        636        653        652        636        637        654        653        637        638        655        654        638        639        656        655        639        640        657        656        640        641        658        657        641        642        659        658        642        643        660        659        643        644        661        660        644        645        662        661        646        647        664        663        647        648        665        664        648        649        666        665        649        650        667        666        650        651        668        667        651        652        669        668        652        653        670        669        653        654        671        670        654        655        672        671        655        656        673        672        656        657        674        673        657        658        675        674        658        659        676        675        659        660        677        676        660        661        678        677        661        662        679        678        663        664        681        680        664        665        682        681        665        666        683        682        666        667        684        683        667        668        685        684        668        669        686        685        669        670        687        686        670        671        688        687        671        672        689        688        672        673        690        689        673        674        691        690        674        675        692        691        675        676        693        692        676        677        694        693        677        678        695        694        678        679        696        695        680        681        698        697        681        682        699        698        682        683        700        699        683        684        701        700        684        685        702        701        685        686        703        702        686        687        704        703        687        688        705        704        688        689        706        705        689        690        707        706        690        691        708        707        691        692        709        708        692        693        710        709        693        694        711        710        694        695        712        711        695        696        713        712        697        698        715        714        698        699        716        715        699        700        717        716        700        701        718        717        701        702        719        718        702        703        720        719        703        704        721        720        704        705        722        721        705        706        723        722        706        707        724        723        707        708        725        724        708        709        726        725        709        710        727        726        710        711        728        727        711        712        729        728        712        713        730        729        714        715        732        731        715        716        733        732        716        717        734        733        717        718        735        734        718        719        736        735        719        720        737        736        720        721        738        737        721        722        739        738        722        723        740        739        723        724        741        740        724        725        742        741        725        726        743        742        726        727        744        743        727        728        745        744        728        729        746        745        729        730        747        746        731        732        749        748        732        733        750        749        733        734        751        750        734        735        752        751        735        736        753        752        736        737        754        753        737        738        755        754        738        739        756        755        739        740        757        756        740        741        758        757        741        742        759        758        742        743        760        759        743        744        761        760        744        745        762        761        745        746        763        762        746        747        764        763        748        749        766        765        749        750        767        766        750        751        768        767        751        752        769        768        752        753        770        769        753        754        771        770        754        755        772        771        755        756        773        772        756        757        774        773        757        758        775        774        758        759        776        775        759        760        777        776        760        761        778        777        761        762        779        778        762        763        780        779        763        764        781        780        765        766        783        782        766        767        784        783        767        768        785        784        768        769        786        785        769        770        787        786        770        771        788        787        771        772        789        788        772        773        790        789        773        774        791        790        774        775        792        791        775        776        793        792        776        777        794        793        777        778        795        794        778        779        796        795        779        780        797        796        780        781        798        797        782        783        800        799        783        784        801        800        784        785        802        801        785        786        803        802        786        787        804        803        787        788        805        804        788        789        806        805        789        790        807        806        790        791        808        807        791        792        809        808        792        793        810        809        793        794        811        810        794        795        812        811        795        796        813        812        796        797        814        813        797        798        815        814        799        800        817        816        800        801        818        817        801        802        819        818        802        803        820        819        803        804        821        820        804        805        822        821        805        806        823        822        806        807        824        823        807        808        825        824        808        809        826        825        809        810        827        826        810        811        828        827        811        812        829        828        812        813        830        829        813        814        831        830        814        815        832        831        816        817        834        833        817        818        835        834        818        819        836        835        819        820        837        836        820        821        838        837        821        822        839        838        822        823        840        839        823        824        841        840        824        825        842        841        825        826        843        842        826        827        844        843        827        828        845        844        828        829        846        845        829        830        847        846        830        831        848        847        831        832        849        848        833        834        562        561        834        835        563        562        835        836        564        563        836        837        565        564        837        838        566        565        838        839        567        566        839        840        568        567        840        841        569        568        841        842        570        569        842        843        571        570        843        844        572        571        844        845        573        572        845        846        574        573        846        847        575        574        847        848        576        575        848        849        577        576        884        885        579        578        885        886        580        579        886        887        581        580        887        888        582        581        888        889        583        582        889        890        584        583        890        891        585        584        891        892        586        585        892        893        587        586        893        894        588        587        894        895        589        588        895        896        590        589        896        897        591        590        897        898        592        591        898        899        593        592        899        900        594        593        901        902        885        884        902        903        886        885        903        904        887        886        904        905        888        887        905        906        889        888        906        907        890        889        907        908        891        890        908        909        892        891        909        910        893        892        910        911        894        893        911        912        895        894        912        913        896        895        913        914        897        896        914        915        898        897        915        916        899        898        916        917        900        899        918        919        902        901        919        920        903        902        920        921        904        903        921        922        905        904        922        923        906        905        923        924        907        906        924        925        908        907        925        926        909        908        926        927        910        909        927        928        911        910        928        929        912        911        929        930        913        912        930        931        914        913        931        932        915        914        932        933        916        915        933        934        917        916        935        936        919        918        936        937        920        919        937        938        921        920        938        939        922        921        939        940        923        922        940        941        924        923        941        942        925        924        942        943        926        925        943        944        927        926        944        945        928        927        945        946        929        928        946        947        930        929        947        948        931        930        948        949        932        931        949        950        933        932        950        951        934        933        952        953        936        935        953        954        937        936        954        955        938        937        955        956        939        938        956        957        940        939        957        958        941        940        958        959        942        941        959        960        943        942        960        961        944        943        961        962        945        944        962        963        946        945        963        964        947        946        964        965        948        947        965        966        949        948        966        967        950        949        967        968        951        950        969        970        953        952        970        971        954        953        971        972        955        954        972        973        956        955        973        974        957        956        974        975        958        957        975        976        959        958        976        977        960        959        977        978        961        960        978        979        962        961        979        980        963        962        980        981        964        963        981        982        965        964        982        983        966        965        983        984        967        966        984        985        968        967        986        987        970        969        987        988        971        970        988        989        972        971        989        990        973        972        990        991        974        973        991        992        975        974        992        993        976        975        993        994        977        976        994        995        978        977        995        996        979        978        996        997        980        979        997        998        981        980        998        999        982        981        999       1000        983        982       1000       1001        984        983       1001       1002        985        984       1003       1004        987        986       1004       1005        988        987       1005       1006        989        988       1006       1007        990        989       1007       1008        991        990       1008       1009        992        991       1009       1010        993        992       1010       1011        994        993       1011       1012        995        994       1012       1013        996        995       1013       1014        997        996       1014       1015        998        997       1015       1016        999        998       1016       1017       1000        999       1017       1018       1001       1000       1018       1019       1002       1001       1020       1021       1004       1003       1021       1022       1005       1004       1022       1023       1006       1005       1023       1024       1007       1006       1024       1025       1008       1007       1025       1026       1009       1008       1026       1027       1010       1009       1027       1028       1011       1010       1028       1029       1012       1011       1029       1030       1013       1012       1030       1031       1014       1013       1031       1032       1015       1014       1032       1033       1016       1015       1033       1034       1017       1016       1034       1035       1018       1017       1035       1036       1019       1018       1037       1038       1021       1020       1038       1039       1022       1021       1039       1040       1023       1022       1040       1041       1024       1023       1041       1042       1025       1024       1042       1043       1026       1025       1043       1044       1027       1026       1044       1045       1028       1027       1045       1046       1029       1028       1046       1047       1030       1029       1047       1048       1031       1030       1048       1049       1032       1031       1049       1050       1033       1032       1050       1051       1034       1033       1051       1052       1035       1034       1052       1053       1036       1035       1054       1055       1038       1037       1055       1056       1039       1038       1056       1057       1040       1039       1057       1058       1041       1040       1058       1059       1042       1041       1059       1060       1043       1042       1060       1061       1044       1043       1061       1062       1045       1044       1062       1063       1046       1045       1063       1064       1047       1046       1064       1065       1048       1047       1065       1066       1049       1048       1066       1067       1050       1049       1067       1068       1051       1050       1068       1069       1052       1051       1069       1070       1053       1052       1071       1072       1055       1054       1072       1073       1056       1055       1073       1074       1057       1056       1074       1075       1058       1057       1075       1076       1059       1058       1076       1077       1060       1059       1077       1078       1061       1060       1078       1079       1062       1061       1079       1080       1063       1062       1080       1081       1064       1063       1081       1082       1065       1064       1082       1083       1066       1065       1083       1084       1067       1066       1084       1085       1068       1067       1085       1086       1069       1068       1086       1087       1070       1069       1088       1089       1072       1071       1089       1090       1073       1072       1090       1091       1074       1073       1091       1092       1075       1074       1092       1093       1076       1075       1093       1094       1077       1076       1094       1095       1078       1077       1095       1096       1079       1078       1096       1097       1080       1079       1097       1098       1081       1080       1098       1099       1082       1081       1099       1100       1083       1082       1100       1101       1084       1083       1101       1102       1085       1084       1102       1103       1086       1085       1103       1104       1087       1086       1105       1106       1089       1088       1106       1107       1090       1089       1107       1108       1091       1090       1108       1109       1092       1091       1109       1110       1093       1092       1110       1111       1094       1093       1111       1112       1095       1094       1112       1113       1096       1095       1113       1114       1097       1096       1114       1115       1098       1097       1115       1116       1099       1098       1116       1117       1100       1099       1117       1118       1101       1100       1118       1119       1102       1101       1119       1120       1103       1102       1120       1121       1104       1103       1122       1123       1106       1105       1123       1124       1107       1106       1124       1125       1108       1107       1125       1126       1109       1108       1126       1127       1110       1109       1127       1128       1111       1110       1128       1129       1112       1111       1129       1130       1113       1112       1130       1131       1114       1113       1131       1132       1115       1114       1132       1133       1116       1115       1133       1134       1117       1116       1134       1135       1118       1117       1135       1136       1119       1118       1136       1137       1120       1119       1137       1138       1121       1120        272        273       1123       1122        273        274       1124       1123        274        275       1125       1124        275        276       1126       1125        276        277       1127       1126        277        278       1128       1127        278        279       1129       1128        279        280       1130       1129        280        281       1131       1130        281        282       1132       1131        282        283       1133       1132        283        284       1134       1133        284        285       1135       1134        285        286       1136       1135        286        287       1137       1136        287        288       1138       1137 </DataArray>
<DataArray type="Int32"                                    Name="offsets"                                                      NumberOfComponents=" 1" format="ascii">
         4          8         12         16         20         24         28         32         36         40         44         48         52         56         60         64         68         72         76         80         84         88         92         96        100        104        108        112        116        120        124        128        132        136        140        144        148        152        156        160        164        168        172        176        180        184        188        192        196        200        204        208        212        216        220        224        228        232        236        240        244        248        252        256        260        264        268        272        276        280        284        288        292        296        300        304        308        312        316        320        324        328        332        336        340        344        348        352        356        360        364        368        372        376        380        384        388        392        396        400        404        408        412        416        420        424        428        432        436        440        444        448        452        456        460        464        468        472        476        480        484        488        492        496        500        504        508        512        516        520        524        528        532        536        540        544        548        552        556        560        564        568        572        576        580        584        588        592        596        600        604        608        612        616        620        624        628        632        636        640        644        648        652        656        660        664        668        672        676        680        684        688        692        696        700        704        708        712        716        720        724        728        732        736        740        744        748        752        756        760        764        768        772        776        780        784        788        792        796        800        804        808        812        816        820        824        828        832        836        840        844        848        852        856        860        864        868        872        876        880        884        888        892        896        900        904        908        912        916        920        924        928        932        936        940        944        948        952        956        960        964        968        972        976        980        984        988        992        996       1000       1004       1008       1012       1016       1020       1024       1028       1032       1036       1040       1044       1048       1052       1056       1060       1064       1068       1072       1076       1080       1084       1088       1092       1096       1100       1104       1108       1112       1116       1120       1124       1128       1132       1136       1140       1144       1148       1152       1156       1160       1164       1168       1172       1176       1180       1184       1188       1192       1196       1200       1204       1208       1212       1216       1220       1224       1228       1232       1236       1240       1244       1248       1252       1256       1260       1264       1268       1272       1276       1280       1284       1288       1292       1296       1300       1304       1308       1312       1316       1320       1324       1328       1332       1336       1340       1344       1348       1352       1356       1360       1364       1368       1372       1376       1380       1384       1388       1392       1396       1400       1404       1408       1412       1416       1420       1424       1428       1432       1436       1440       1444       1448       1452       1456       1460       1464       1468       1472       1476       1480       1484       1488       1492       1496       1500       1504       1508       1512       1516       1520       1524       1528       1532       1536       1540       1544       1548       1552       1556       1560       1564       1568       1572       1576       1580       1584       1588       1592       1596       1600       1604       1608       1612       1616       1620       1624       1628       1632       1636       1640       1644       1648       1652       1656       1660       1664       1668       1672       1676       1680       1684       1688       1692       1696       1700       1704       1708       1712       1716       1720       1724       1728       1732       1736       1740       1744       1748       1752       1756       1760       1764       1768       1772       1776       1780       1784       1788       1792       1796       1800       1804       1808       1812       1816       1820       1824       1828       1832       1836       1840       1844       1848       1852       1856       1860       1864       1868       1872       1876       1880       1884       1888       1892       1896       1900       1904       1908       1912       1916       1920       1924       1928       1932       1936       1940       1944       1948       1952       1956       1960       1964       1968       1972       1976       1980       1984       1988       1992       1996       2000       2004       2008       2012       2016       2020       2024       2028       2032       2036       2040       2044       2048       2052       2056       2060       2064       2068       2072       2076       2080       2084       2088       2092       2096       2100       2104       2108       2112       2116       2120       2124       2128       2132       2136       2140       2144       2148       2152       2156       2160       2164       2168       2172       2176       2180       2184       2188       2192       2196       2200       2204       2208       2212       2216       2220       2224       2228       2232       2236       2240       2244       2248       2252       2256       2260       2264       2268       2272       2276       2280       2284       2288       2292       2296       2300       2304       2308       2312       2316       2320       2324       2328       2332       2336       2340       2344       2348       2352       2356       2360       2364       2368       2372       2376       2380       2384       2388       2392       2396       2400       2404       2408       2412       2416       2420       2424       2428       2432       2436       2440       2444       2448       2452       2456       2460       2464       2468       2472       2476       2480       2484       2488       2492       2496       2500       2504       2508       2512       2516       2520       2524       2528       2532       2536       2540       2544       2548       2552       2556       2560       2564       2568       2572       2576       2580       2584       2588       2592       2596       2600       2604       2608       2612       2616       2620       2624       2628       2632       2636       2640       2644       2648       2652       2656       2660       2664       2668       2672       2676       2680       2684       2688       2692       2696       2700       2704       2708       2712       2716       2720       2724       2728       2732       2736       2740       2744       2748       2752       2756       2760       2764       2768       2772       2776       2780       2784       2788       2792       2796       2800       2804       2808       2812       2816       2820       2824       2828       2832       2836       2840       2844       2848       2852       2856       2860       2864       2868       2872       2876       2880       2884       2888       2892       2896       2900       2904       2908       2912       2916       2920       2924       2928       2932       2936       2940       2944       2948       2952       2956       2960       2964       2968       2972       2976       2980       2984       2988       2992       2996       3000       3004       3008       3012       3016       3020       3024       3028       3032       3036       3040       3044       3048       3052       3056       3060       3064       3068       3072       3076       3080       3084       3088       3092       3096       3100       3104       3108       3112       3116       3120       3124       3128       3132       3136       3140       3144       3148       3152       3156       3160       3164       3168       3172       3176       3180       3184       3188       3192       3196       3200       3204       3208       3212       3216       3220       3224       3228       3232       3236       3240       3244       3248       3252       3256       3260       3264       3268       3272       3276       3280       3284       3288       3292       3296       3300       3304       3308       3312       3316       3320       3324       3328       3332       3336       3340       3344       3348       3352       3356       3360       3364       3368       3372       3376       3380       3384       3388       3392       3396       3400       3404       3408       3412       3416       3420       3424       3428       3432       3436       3440       3444       3448       3452       3456       3460       3464       3468       3472       3476       3480       3484       3488       3492       3496       3500       3504       3508       3512       3516       3520       3524       3528       3532       3536       3540       3544       3548       3552       3556       3560       3564       3568       3572       3576       3580       3584       3588       3592       3596       3600       3604       3608       3612       3616       3620       3624       3628       3632       3636       3640       3644       3648       3652       3656       3660       3664       3668       3672       3676       3680       3684       3688       3692       3696       3700       3704       3708       3712       3716       3720       3724       3728       3732       3736       3740       3744       3748       3752       3756       3760       3764       3768       3772       3776       3780       3784       3788       3792       3796       3800       3804       3808       3812       3816       3820       3824       3828       3832       3836       3840       3844       3848       3852       3856       3860       3864       3868       3872       3876       3880       3884       3888       3892       3896       3900       3904       3908       3912       3916       3920       3924       3928       3932       3936       3940       3944       3948       3952       3956       3960       3964       3968       3972       3976       3980       3984       3988       3992       3996       4000       4004       4008       4012       4016       4020       4024       4028       4032       4036       4040       4044       4048       4052       4056       4060       4064       4068       4072       4076       4080       4084       4088       4092       4096 </DataArray>
<DataArray type="UInt8"                                    Name="types"                                                      NumberOfComponents=" 1" format="ascii">
         9          9          9          9          9          9          9          9          9          9          9          9          9          9          9          9          9          9          9          9          9          9          9          9          9          9          9          9          9          9          9          9          9          9          9          9          9          9          9          9          9          9          9          9          9          9          9          9          9          9          9          9          9          9          9          9          9          9          9          9          9          9          9          9          9          9          9          9          9          9          9          9          9          9          9          9          9          9          9          9          9          9          9          9          9          9          9          9          9          9          9          9          9          9          9          9          9          9          9          9          9          9          9          9          9          9          9          9          9          9          9          9          9          9          9          9          9          9          9          9          9          9          9          9          9          9          9          9          9          9          9          9          9          9          9          9          9          9          9          9          9          9          9          9          9          9          9          9          9          9          9          9          9          9          9          9          9          9          9          9          9          9          9          9          9          9          9          9          9          9          9          9          9          9          9          9          9          9          9          9          9          9          9          9          9          9          9          9          9          9          9          9          9          9          9          9          9          9          9          9          9          9          9          9          9          9          9          9          9          9          9          9          9          9          9          9          9          9          9          9          9          9          9          9          9          9          9          9          9          9          9          9          9          9          9          9          9          9          9          9          9          9          9          9          9          9          9          9          9          9          9          9          9          9          9          9          9          9          9          9          9          9          9          9          9          9          9          9          9          9          9          9          9          9          9          9          9          9          9          9          9          9          9          9          9          9          9          9          9          9          9          9          9          9          9          9          9          9          9          9          9          9          9          9          9          9          9          9          9          9          9          9          9          9          9          9          9          9          9          9          9          9          9          9          9          9          9          9          9          9          9          9          9          9          9          9          9          9          9          9          9          9          9          9          9          9          9          9          9          9          9          9          9          9          9          9          9          9          9          9          9          9          9          9          9          9          9          9          9          9          9          9          9          9          9          9          9          9          9          9          9          9          9          9          9          9          9          9          9          9          9          9          9          9          9          9          9          9          9          9          9          9          9          9          9          9          9          9          9          9          9          9          9          9          9          9          9          9          9          9          9          9          9          9          9          9          9          9          9          9          9          9          9          9          9          9          9          9          9          9          9          9          9          9          9          9          9          9          9          9          9          9          9          9          9          9          9          9          9          9          9          9          9          9          9          9          9          9          9          9          9          9          9          9          9          9          9          9          9          9          9          9          9          9          9          9          9          9          9          9          9          9          9          9          9          9          9          9          9          9          9          9          9          9          9          9          9          9          9          9          9          9          9          9          9          9          9          9          9          9          9          9          9          9          9          9          9          9          9          9          9          9          9          9          9          9          9          9          9          9          9          9          9          9          9          9          9          9          9          9          9          9          9          9          9          9          9          9          9          9          9          9          9          9          9          9          9          9          9          9          9          9          9          9          9          9          9          9          9          9          9          9          9          9          9          9          9          9          9          9          9          9          9          9          9          9          9          9          9          9          9          9          9          9          9          9          9          9          9          9          9          9          9          9          9          9          9          9          9          9          9          9          9          9          9          9          9          9          9          9          9          9          9          9          9          9          9          9          9          9          9          9          9          9          9          9          9          9          9          9          9          9          9          9          9          9          9          9          9          9          9          9          9          9          9          9          9          9          9          9          9          9          9          9          9          9          9          9          9          9          9          9          9          9          9          9          9          9          9          9          9          9          9          9          9          9          9          9          9          9          9          9          9          9          9          9          9          9          9          9          9          9          9          9          9          9          9          9          9          9          9          9          9          9          9          9          9          9          9          9          9          9          9          9          9          9          9          9          9          9          9          9          9          9          9          9          9          9          9          9          9          9          9          9          9          9          9          9          9          9          9          9          9          9          9          9          9          9          9          9          9          9          9          9          9          9          9          9          9          9          9          9          9          9          9          9          9          9          9          9          9          9          9          9          9          9          9          9          9          9          9          9          9          9          9          9          9          9          9          9          9          9          9          9          9          9          9          9          9          9          9          9          9          9          9          9          9          9          9          9          9          9          9          9          9          9          9          9          9          9          9          9          9          9          9          9          9          9          9          9          9          9          9          9          9          9          9          9          9          9          9          9          9          9          9          9          9          9          9          9          9          9          9          9          9          9          9          9          9          9          9          9          9          9          9          9          9          9          9          9          9          9          9          9          9          9          9          9          9          9          9          9          9          9          9          9          9          9          9          9          9          9          9          9          9          9          9          9          9          9          9          9          9          9          9          9          9          9          9          9          9          9          9          9          9          9          9          9          9          9          9          9          9          9          9          9          9          9          9          9          9          9          9          9          9          9          9          9          9          9          9          9          9          9          9          9          9          9          9          9          9          9          9          9          9          9          9          9          9          9          9          9          9          9          9          9          9          9          9          9          9          9          9          9          9          9          9          9          9          9          9          9          9          9          9          9          9          9          9          9          9          9          9          9          9          9          9          9          9          9          9          9          9          9 </DataArray>
</Cells>
<CellData>
<DataArray type="Int32"                                    Name="material"                                                      NumberOfComponents=" 1" format="ascii">
         1          1          1          1          1          1          1          1          1          1          1          1          1          1          1          1          1          1          1          1          1          1          1          1          1          1          1          1          1          1          1          1          1          1          1          1          1          1          1          1          1          1          1          1          1          1          1          1          1          1          1          1          1          1          1          1          1          1          1          1          1          1          1          1          1          1          1          1          1          1          1          1          1          1          1          1          1          1          1          1          1          1          1          1          1          1          1          1          1          1          1          1          1          1          1          1          1          1          1          1          1          1          1          1          1          1          1          1          1          1          1          1          1          1          1          1          1          1          1          1          1          1          1          1          1          1          1          1          1          1          1          1          1          1          1          1          1          1          1          1          1          1          1          1          1          1          1          1          1          1          1          1          1          1          1          1          1          1          1          1          1          1          1          1          1          1          1          1          1          1          1          1          1          1          1          1          1          1          1          1          1          1          1          1          1          1          1          1          1          1          1          1          1          1          1          1          1          1          1          1          1          1          1          1          1          1          1          1          1          1          1          1          1          1          1          1          1          1          1          1          1          1          1          1          1          1          1          1          1          1          1          1          1          1          1          1          1          1          1          1          1          1          1          1          1          1          1          1          1          1          1          1          1          1          1          1          1          1          1          1          1          1          1          1          1          1          1          1          1          1          1          1          1          1          1          1          1          1          1          1          1          1          1          1          1          1          1          1          1          1          1          1          1          1          1          1          1          1          1          1          1          1          1          1          1          1          1          1          1          1          1          1          1          1          1          1          1          1          1          1          1          1          1          1          1          1          1          1          1          1          1          1          1          1          1          1          1          1          1          1          1          1          1          1          1          1          1          1          1          1          1          1          1          1          1          1          1          1          1          1          1          1          1          1          1          1          1          1          1          1          1          1          1          1          1          1          1          1          1          1          1          1          1          1          1          1          1          1          1          1          1          1          1          1          1          1          1          1          1          1          1          1          1          1          1          1          1          1          1          1          1          1          1          1          1          1          1          1          1          1          1          1          1          1          1          1          1          1          1          1          1          1          1          1          1          1          1          1          1          1          1          1          1          1          1          1          1          1          1          1          1          1          1          1          1          1          1          1          1          1          1          1          1          1          1          1          1          1          1          1          1          1          1          1          1          1          1          1          1          1          1          1          1          1          1          1          1          1          1          1          1          1          1          1          1          1          1          1          1          1          1          1          1          1          1          1          1          1          1          1          1          1          1          1          1          1          1          1          1          1          1          1          1          1          1          1          1          1          1          1          1          1          1          1          1          1          1          1          1          1          1          1          1          1          1          1          1          1          1          1          1          1          1          1          1          1          1          1          1          1          1          1          1          1          1          1          1          1          1          1          1          1          1          1          1          1          1          1          1          1          1          1          1          1          1          1          1          1          1          1          1          1          1          1          1          1          1          1          1          1          1          1          1          1          1          1          1          1          1          1          1          1          1          1          1          1          1          1          1          1          1          1          1          1          1          1          1          1          1          1          1          1          1          1          1          1          1          1          1          1          1          1          1          1          1          1          1          1          1          1          1          1          1          1          1          1          1          1          1          1          1          1          1          1          1          1          1          1          1          1          1          1          1          1          1          1          1          1          1          1          1          1          1          1          1          1          1          1          1          1          1          1          1          1          1          1          1          1          1          1          1          1          1          1          1          1          1          1          1          1          1          1          1          1          1          1          1          1          1          1          1          1          1          1          1          1          1          1          1          1          1          1          1          1          1          1          1          1          1          1          1          1          1          1          1          1          1          1          1          1          1          1          1          1          1          1          1          1          1          1          1          1          1          1          1          1          1          1          1          1          1          1          1          1          1          1          1          1          1          1          1          1          1          1          1          1          1          1          1          1          1          1          1          1          1          1          1          1          1          1          1          1          1          1          1          1          1          1          1          1          1          1          1          1          1          1          1          1          1          1          1          1          1          1          1          1          1          1          1          1          1          1          1          1          1          1          1          1          1          1          1          1          1          1          1          1          1          1          1          1          1          1          1          1          1          1          1          1          1          1          1          1          1          1          1          1          1          1          1          1          1          1          1          1          1          1          1          1          1          1          1          1          1          1          1          1          1          1          1          1          1          1          1          1          1          1          1          1          1          1          1          1          1          1          1          1          1          1          1          1          1          1          1          1          1          1          1          1          1          1          1          1          1          1          1          1          1          1          1          1          1          1          1          1          1          1          1          1          1          1          1          1          1          1          1          1          1          1          1          1          1          1          1          1          1          1          1          1          1          1          1          1          1          1          1          1          1          1          1          1          1          1          1          1          1          1          1          1          1          1          1          1          1          1          1          1          1          1          1          1          1          1          1          1          1          1          1          1          1          1          1          1          1          1          1          1          1          1          1          1          1          1          1          1          1          1          1          1          1          1          1          1          1          1 </DataArray>
</CellData>
<PointData>
<DataArray type="Float64"                                    Name="u"                                                      NumberOfComponents=" 3" format="ascii">
             -0.000138607               0.000000000               0.999999992              -0.000165561               0.000000000               0.999999992              -0.000178048               0.000000000               0.999999992              -0.000185221               0.000000000               0.999999992              -0.000190697               0.000000000               0.999999992              -0.000196017               0.000000000               0.999999992              -0.000201809               0.000000000               0.999999992              -0.000208252               0.000000000               0.999999992              -0.000215575               0.000000000               0.999999992              -0.000223879               0.000000000               0.999999992              -0.000233217               0.000000000               0.999999992              -0.000243471               0.000000000               0.999999992              -0.000254632               0.000000000               0.999999992              -0.000266813               0.000000000               0.999999992              -0.000279949               0.000000000               0.999999992              -0.000293881               0.000000000               0.999999992              -0.000308332               0.000000000               0.999999992              -0.000137703               0.000067971               0.999999992              -0.000163279               0.000058708               0.999999992              -0.000175006               0.000055745               0.999999992              -0.000181761               0.000056188               0.999999992              -0.000187072               0.000058653               0.999999992              -0.000192338               0.000062275               0.999999992              -0.000198097               0.000066600               0.999999992              -0.000204586               0.000071448               0.999999992              -0.000211957               0.000076710               0.999999992              -0.000220304               0.000082195               0.999999992              -0.000229625               0.000087814               0.999999992              -0.000239858               0.000093545               0.999999992              -0.000251016               0.000099397               0.999999992              -0.000263074               0.000105200               0.999999992              -0.000275954               0.000110739               0.999999992              -0.000289537               0.000115629               0.999999992              -0.000303635               0.000119342               0.999999992              -0.000135158               0.000135116               0.999999992              -0.000156689               0.000116856               0.999999992              -0.000166206               0.000111339               0.999999992              -0.000171924               0.000112545               0.999999992              -0.000176799               0.000117643               0.999999992              -0.000181924               0.000124938               0.999999992              -0.000187751               0.000133565               0.999999992              -0.000194440               0.000143202               0.999999992              -0.000202069               0.000153615               0.999999992              -0.000210695               0.000164569               0.999999992              -0.000220308               0.000175787               0.999999992              -0.000230807               0.000187187               0.999999992              -0.000242140               0.000198718               0.999999992              -0.000254198               0.000210089               0.999999992              -0.000266856               0.000220929               0.999999992              -0.000279934               0.000230777               0.999999992              -0.000293325               0.000239066               0.999999992              -0.000131215               0.000200691               0.999999992              -0.000146412               0.000173890               0.999999992              -0.000152733               0.000166501               0.999999992              -0.000157069               0.000168967               0.999999992              -0.000161519               0.000176913               0.999999992              -0.000166732               0.000188024               0.999999992              -0.000172927               0.000201028               0.999999992              -0.000180164               0.000215457               0.999999992              -0.000188438               0.000231069               0.999999992              -0.000197664               0.000247283               0.999999992              -0.000207745               0.000263900               0.999999992              -0.000218593               0.000280807               0.999999992              -0.000230100               0.000297823               0.999999992              -0.000242093               0.000314584               0.999999992              -0.000254434               0.000330666               0.999999992              -0.000266989               0.000345665               0.999999992              -0.000279707               0.000359102               0.999999992              -0.000126005               0.000264048               0.999999992              -0.000132981               0.000229402               0.999999992              -0.000135725               0.000220994               0.999999992              -0.000138822               0.000225322               0.999999992              -0.000143236               0.000236443               0.999999992              -0.000149011               0.000251407               0.999999992              -0.000156076               0.000268913               0.999999992              -0.000164253               0.000288192               0.999999992              -0.000173411               0.000308737               0.999999992              -0.000183429               0.000330048               0.999999992              -0.000194127               0.000351927               0.999999992              -0.000205375               0.000374105               0.999999992              -0.000217014               0.000396443               0.999999992              -0.000228904               0.000418462               0.999999992              -0.000240910               0.000439743               0.999999992              -0.000252998               0.000460137               0.999999992              -0.000265240               0.000479378               0.999999992              -0.000119465               0.000324628               0.999999992              -0.000117021               0.000283147               0.999999992              -0.000116515               0.000274590               0.999999992              -0.000119041               0.000281224               0.999999992              -0.000124090               0.000295732               0.999999992              -0.000130949               0.000314677               0.999999992              -0.000139261               0.000336667               0.999999992              -0.000148697               0.000360560               0.999999992              -0.000158996               0.000385782               0.999999992              -0.000169963               0.000412057               0.999999992              -0.000181421               0.000438906               0.999999992              -0.000193226               0.000466192               0.999999992              -0.000205147               0.000493559               0.999999992              -0.000217040               0.000520448               0.999999992              -0.000228969               0.000546770               0.999999992              -0.000240910               0.000572355               0.999999992              -0.000252814               0.000597269               0.999999992              -0.000111683               0.000381815               0.999999992              -0.000099533               0.000334948               0.999999992              -0.000096654               0.000326909               0.999999992              -0.000099506               0.000336105               0.999999992              -0.000105809               0.000354112               0.999999992              -0.000114166               0.000377094               0.999999992              -0.000124043               0.000403356               0.999999992              -0.000134949               0.000431685               0.999999992              -0.000146537               0.000461510               0.999999992              -0.000158592               0.000492339               0.999999992              -0.000170879               0.000523900               0.999999992              -0.000183233               0.000555830               0.999999992              -0.000195433               0.000587702               0.999999992              -0.000207475               0.000619094               0.999999992              -0.000219350               0.000649944               0.999999992              -0.000230993               0.000680287               0.999999992              -0.000242377               0.000709855               0.999999992              -0.000102966               0.000434868               0.999999992              -0.000081494               0.000384680               0.999999992              -0.000077381               0.000377635               0.999999992              -0.000081480               0.000389421               0.999999992              -0.000089501               0.000410854               0.999999992              -0.000099694               0.000437672               0.999999992              -0.000111304               0.000468078               0.999999992              -0.000123756               0.000500753               0.999999992              -0.000136625               0.000534835               0.999999992              -0.000149599               0.000570009               0.999999992              -0.000162477               0.000605993               0.999999992              -0.000175127               0.000642169               0.999999992              -0.000187392               0.000678116               0.999999992              -0.000199275               0.000713595               0.999999992              -0.000210816               0.000748587               0.999999992              -0.000221932               0.000783069               0.999999992              -0.000232640               0.000816678               0.999999992              -0.000093739               0.000482910               0.999999992              -0.000063606               0.000432248               0.999999992              -0.000059827               0.000426345               0.999999992              -0.000065772               0.000440518               0.999999992              -0.000075885               0.000465105               0.999999992              -0.000088017               0.000495658               0.999999992              -0.000101377               0.000530105               0.999999992              -0.000115127               0.000566971               0.999999992              -0.000128847               0.000605257               0.999999992              -0.000142404               0.000644674               0.999999992              -0.000155546               0.000684652               0.999999992              -0.000168129               0.000724637               0.999999992              -0.000180152               0.000764274               0.999999992              -0.000191668               0.000803479               0.999999992              -0.000202799               0.000842223               0.999999992              -0.000213662               0.000880344               0.999999992              -0.000224320               0.000917691               0.999999992              -0.000084784               0.000527646               0.999999992              -0.000049816               0.000482578               0.999999992              -0.000043478               0.000472962               0.999999992              -0.000047948               0.000482249               0.999999992              -0.000057010               0.000502131               0.999999992              -0.000068067               0.000528449               0.999999992              -0.000080135               0.000559142               0.999999992              -0.000092761               0.000592591               0.999999992              -0.000105143               0.000627822               0.999999992              -0.000117368               0.000664209               0.999999992              -0.000129202               0.000701427               0.999999992              -0.000140519               0.000739008               0.999999992              -0.000151186               0.000776550               0.999999992              -0.000161217               0.000814006               0.999999992              -0.000170807               0.000851254               0.999999992              -0.000180329               0.000888189               0.999999992              -0.000189925               0.000924637               0.999999992              -0.000074803               0.000567883               0.999999992              -0.000037982               0.000530532               0.999999992              -0.000029238               0.000520031               0.999999992              -0.000031785               0.000525691               0.999999992              -0.000039311               0.000541561               0.999999992              -0.000048915               0.000564021               0.999999992              -0.000059596               0.000591052               0.999999992              -0.000070809               0.000621275               0.999999992              -0.000081894               0.000653579               0.999999992              -0.000092654               0.000687150               0.999999992              -0.000103137               0.000721683               0.999999992              -0.000113143               0.000756720               0.999999992              -0.000122387               0.000792011               0.999999992              -0.000130818               0.000827306               0.999999992              -0.000138540               0.000862637               0.999999992              -0.000145850               0.000897937               0.999999992              -0.000153167               0.000933257               0.999999992              -0.000063915               0.000603074               0.999999992              -0.000028004               0.000574942               0.999999992              -0.000017671               0.000565571               0.999999992              -0.000018201               0.000569325               0.999999992              -0.000023854               0.000582202               0.999999992              -0.000031784               0.000601422               0.999999992              -0.000040748               0.000625303               0.999999992              -0.000050223               0.000652548               0.999999992              -0.000059826               0.000682196               0.999999992              -0.000069152               0.000713337               0.999999992              -0.000078208               0.000745455               0.999999992              -0.000086815               0.000778261               0.999999992              -0.000094519               0.000811501               0.999999992              -0.000101188               0.000844963               0.999999992              -0.000106687               0.000878504               0.999999992              -0.000111169               0.000912100               0.999999992              -0.000115002               0.000945863               0.999999992              -0.000052158               0.000632684               0.999999992              -0.000019881               0.000614263               0.999999992              -0.000009087               0.000607432               0.999999992              -0.000008034               0.000610713               0.999999992              -0.000011794               0.000621780               0.999999992              -0.000017785               0.000638698               0.999999992              -0.000024798               0.000660124               0.999999992              -0.000032327               0.000684981               0.999999992              -0.000040189               0.000712321               0.999999992              -0.000047958               0.000741459               0.999999992              -0.000055461               0.000771737               0.999999992              -0.000062522               0.000802873               0.999999992              -0.000068656               0.000834667               0.999999992              -0.000073527               0.000866806               0.999999992              -0.000076924               0.000899124               0.999999992              -0.000078527               0.000931517               0.999999992              -0.000078418               0.000963996               0.999999992              -0.000039711               0.000656112               0.999999992              -0.000013413               0.000646874               0.999999992              -0.000003550               0.000643362               0.999999992              -0.000001622               0.000647160               0.999999992              -0.000003711               0.000657476               0.999999992              -0.000007813               0.000673039               0.999999992              -0.000012793               0.000692814               0.999999992              -0.000018326               0.000715932               0.999999992              -0.000024279               0.000741659               0.999999992              -0.000030278               0.000769347               0.999999992              -0.000036016               0.000798462               0.999999992              -0.000041332               0.000828560               0.999999992              -0.000045896               0.000859437               0.999999992              -0.000049282               0.000890909               0.999999992              -0.000050986               0.000922618               0.999999992              -0.000050507               0.000954414               0.999999992              -0.000047328               0.000986332               0.999999992              -0.000026717               0.000673044               0.999999992              -0.000008279               0.000671234               0.999999992              -0.000000717               0.000671087               0.999999992               0.000001295               0.000676008               0.999999992               0.000000363               0.000686211               0.999999992              -0.000002043               0.000701074               0.999999992              -0.000005233               0.000719809               0.999999992              -0.000008796               0.000741820               0.999999992              -0.000012722               0.000766455               0.999999992              -0.000016816               0.000793177               0.999999992              -0.000020789               0.000821521               0.999999992              -0.000024432               0.000851088               0.999999992              -0.000027450               0.000881649               0.999999992              -0.000029463               0.000913003               0.999999992              -0.000030014               0.000944886               0.999999992              -0.000028580               0.000976987               0.999999992              -0.000024288               0.001009058               0.999999992              -0.000013418               0.000683148               0.999999992              -0.000003993               0.000686202               0.999999992               0.000000162               0.000688637               0.999999992               0.000001428               0.000694657               0.999999992               0.000001148               0.000705057               0.999999992               0.000000056               0.000719653               0.999999992              -0.000001447               0.000737851               0.999999992              -0.000003184               0.000759104               0.999999992              -0.000005176               0.000783003               0.999999992              -0.000007270               0.000809123               0.999999992              -0.000009353               0.000837080               0.999999992              -0.000011244               0.000866488               0.999999992              -0.000012701               0.000897078               0.999999992              -0.000013547               0.000928675               0.999999992              -0.000013551               0.000960938               0.999999992              -0.000012396               0.000993601               0.999999992              -0.000009546               0.001026216               0.999999992              -0.000000000               0.000686442               0.999999992               0.000000000               0.000691234               0.999999992              -0.000000000               0.000694670               0.999999992               0.000000000               0.000701108               0.999999992              -0.000000000               0.000711600               0.999999992               0.000000000               0.000726087               0.999999992               0.000000000               0.000744140               0.999999992               0.000000000               0.000765179               0.999999992              -0.000000000               0.000788815               0.999999992              -0.000000000               0.000814722               0.999999992              -0.000000000               0.000842503               0.999999992              -0.000000000               0.000871896               0.999999992              -0.000000000               0.000902591               0.999999992              -0.000000000               0.000934237               0.999999992              -0.000000000               0.000966617               0.999999992              -0.000000000               0.000999441               0.999999992              -0.000000000               0.001032237               0.999999992              -0.000138607               0.000000000               0.999999992              -0.000165561               0.000000000               0.999999992              -0.000178048               0.000000000               0.999999992              -0.000185221               0.000000000               0.999999992              -0.000190697               0.000000000               0.999999992              -0.000196017               0.000000000               0.999999992              -0.000201809               0.000000000               0.999999992              -0.000208252               0.000000000               0.999999992              -0.000215575               0.000000000               0.999999992              -0.000223879               0.000000000               0.999999992              -0.000233217               0.000000000               0.999999992              -0.000243471               0.000000000               0.999999992              -0.000254632               0.000000000               0.999999992              -0.000266813               0.000000000               0.999999992              -0.000279949               0.000000000               0.999999992              -0.000293881               0.000000000               0.999999992              -0.000308332               0.000000000               0.999999992              -0.000137703              -0.000067971               0.999999992              -0.000163279              -0.000058708               0.999999992              -0.000175006              -0.000055745               0.999999992              -0.000181761              -0.000056188               0.999999992              -0.000187072              -0.000058653               0.999999992              -0.000192338              -0.000062275               0.999999992              -0.000198097              -0.000066600               0.999999992              -0.000204586              -0.000071448               0.999999992              -0.000211957              -0.000076710               0.999999992              -0.000220304              -0.000082195               0.999999992              -0.000229625              -0.000087814               0.999999992              -0.000239858              -0.000093545               0.999999992              -0.000251016              -0.000099397               0.999999992              -0.000263074              -0.000105200               0.999999992              -0.000275954              -0.000110739               0.999999992              -0.000289537              -0.000115629               0.999999992              -0.000303635              -0.000119342               0.999999992              -0.000135158              -0.000135116               0.999999992              -0.000156689              -0.000116856               0.999999992              -0.000166206              -0.000111339               0.999999992              -0.000171924              -0.000112545               0.999999992              -0.000176799              -0.000117643               0.999999992              -0.000181924              -0.000124938               0.999999992              -0.000187751              -0.000133565               0.999999992              -0.000194440              -0.000143202               0.999999992              -0.000202069              -0.000153615               0.999999992              -0.000210695              -0.000164569               0.999999992              -0.000220308              -0.000175787               0.999999992              -0.000230807              -0.000187187               0.999999992              -0.000242140              -0.000198718               0.999999992              -0.000254198              -0.000210089               0.999999992              -0.000266856              -0.000220929               0.999999992              -0.000279934              -0.000230777               0.999999992              -0.000293325              -0.000239066               0.999999992              -0.000131215              -0.000200691               0.999999992              -0.000146412              -0.000173890               0.999999992              -0.000152733              -0.000166501               0.999999992              -0.000157069              -0.000168967               0.999999992              -0.000161519              -0.000176913               0.999999992              -0.000166732              -0.000188024               0.999999992              -0.000172927              -0.000201028               0.999999992              -0.000180164              -0.000215457               0.999999992              -0.000188438              -0.000231069               0.999999992              -0.000197664              -0.000247283               0.999999992              -0.000207745              -0.000263900               0.999999992              -0.000218593              -0.000280807               0.999999992              -0.000230100              -0.000297823               0.999999992              -0.000242093              -0.000314584               0.999999992              -0.000254434              -0.000330666               0.999999992              -0.000266989              -0.000345665               0.999999992              -0.000279707              -0.000359102               0.999999992              -0.000126005              -0.000264048               0.999999992              -0.000132981              -0.000229402               0.999999992              -0.000135725              -0.000220994               0.999999992              -0.000138822              -0.000225322               0.999999992              -0.000143236              -0.000236443               0.999999992              -0.000149011              -0.000251407               0.999999992              -0.000156076              -0.000268913               0.999999992              -0.000164253              -0.000288192               0.999999992              -0.000173411              -0.000308737               0.999999992              -0.000183429              -0.000330048               0.999999992              -0.000194127              -0.000351927               0.999999992              -0.000205375              -0.000374105               0.999999992              -0.000217014              -0.000396443               0.999999992              -0.000228904              -0.000418462               0.999999992              -0.000240910              -0.000439743               0.999999992              -0.000252998              -0.000460137               0.999999992              -0.000265240              -0.000479378               0.999999992              -0.000119465              -0.000324628               0.999999992              -0.000117021              -0.000283147               0.999999992              -0.000116515              -0.000274590               0.999999992              -0.000119041              -0.000281224               0.999999992              -0.000124090              -0.000295732               0.999999992              -0.000130949              -0.000314677               0.999999992              -0.000139261              -0.000336667               0.999999992              -0.000148697              -0.000360560               0.999999992              -0.000158996              -0.000385782               0.999999992              -0.000169963              -0.000412057               0.999999992              -0.000181421              -0.000438906               0.999999992              -0.000193226              -0.000466192               0.999999992              -0.000205147              -0.000493559               0.999999992              -0.000217040              -0.000520448               0.999999992              -0.000228969              -0.000546770               0.999999992              -0.000240910              -0.000572355               0.999999992              -0.000252814              -0.000597269               0.999999992              -0.000111683              -0.000381815               0.999999992              -0.000099533              -0.000334948               0.999999992              -0.000096654              -0.000326909               0.999999992              -0.000099506              -0.000336105               0.999999992              -0.000105809              -0.000354112               0.999999992              -0.000114166              -0.000377094               0.999999992              -0.000124043              -0.000403356               0.999999992              -0.000134949              -0.000431685               0.999999992              -0.000146537              -0.000461510               0.999999992              -0.000158592              -0.000492339               0.999999992              -0.000170879              -0.000523900               0.999999992              -0.000183233              -0.000555830               0.999999992              -0.000195433              -0.000587702               0.999999992              -0.000207475              -0.000619094               0.999999992              -0.000219350              -0.000649944               0.999999992              -0.000230993              -0.000680287               0.999999992              -0.000242377              -0.000709855               0.999999992              -0.000102966              -0.000434868               0.999999992              -0.000081494              -0.000384680               0.999999992              -0.000077381              -0.000377635               0.999999992              -0.000081480              -0.000389421               0.999999992              -0.000089501              -0.000410854               0.999999992              -0.000099694              -0.000437672               0.999999992              -0.000111304              -0.000468078               0.999999992              -0.000123756              -0.000500753               0.999999992              -0.000136625              -0.000534835               0.999999992              -0.000149599              -0.000570009               0.999999992              -0.000162477              -0.000605993               0.999999992              -0.000175127              -0.000642169               0.999999992              -0.000187392              -0.000678116               0.999999992              -0.000199275              -0.000713595               0.999999992              -0.000210816              -0.000748587               0.999999992              -0.000221932              -0.000783069               0.999999992              -0.000232640              -0.000816678               0.999999992              -0.000093739              -0.000482910               0.999999992              -0.000063606              -0.000432248               0.999999992              -0.000059827              -0.000426345               0.999999992              -0.000065772              -0.000440518               0.999999992              -0.000075885              -0.000465105               0.999999992              -0.000088017              -0.000495658               0.999999992              -0.000101377              -0.000530105               0.999999992              -0.000115127              -0.000566971               0.999999992              -0.000128847              -0.000605257               0.999999992              -0.000142404              -0.000644674               0.999999992              -0.000155546              -0.000684652               0.999999992              -0.000168129              -0.000724637               0.999999992              -0.000180152              -0.000764274               0.999999992              -0.000191668              -0.000803479               0.999999992              -0.000202799              -0.000842223               0.999999992              -0.000213662              -0.000880344               0.999999992              -0.000224320              -0.000917691               0.999999992              -0.000084784              -0.000527646               0.999999992              -0.000049816              -0.000482578               0.999999992              -0.000043478              -0.000472962               0.999999992              -0.000047948              -0.000482249               0.999999992              -0.000057010              -0.000502131               0.999999992              -0.000068067              -0.000528449               0.999999992              -0.000080135              -0.000559142               0.999999992              -0.000092761              -0.000592591               0.999999992              -0.000105143              -0.000627822               0.999999992              -0.000117368              -0.000664209               0.999999992              -0.000129202              -0.000701427               0.999999992              -0.000140519              -0.000739008               0.999999992              -0.000151186              -0.000776550               0.999999992              -0.000161217              -0.000814006               0.999999992              -0.000170807              -0.000851254               0.999999992              -0.000180329              -0.000888189               0.999999992              -0.000189925              -0.000924637               0.999999992              -0.000074803              -0.000567883               0.999999992              -0.000037982              -0.000530532               0.999999992              -0.000029238              -0.000520031               0.999999992              -0.000031785              -0.000525691               0.999999992              -0.000039311              -0.000541561               0.999999992              -0.000048915              -0.000564021               0.999999992              -0.000059596              -0.000591052               0.999999992              -0.000070809              -0.000621275               0.999999992              -0.000081894              -0.000653579               0.999999992              -0.000092654              -0.000687150               0.999999992              -0.000103137              -0.000721683               0.999999992              -0.000113143              -0.000756720               0.999999992              -0.000122387              -0.000792011               0.999999992              -0.000130818              -0.000827306               0.999999992              -0.000138540              -0.000862637               0.999999992              -0.000145850              -0.000897937               0.999999992              -0.000153167              -0.000933257               0.999999992              -0.000063915              -0.000603074               0.999999992              -0.000028004              -0.000574942               0.999999992              -0.000017671              -0.000565571               0.999999992              -0.000018201              -0.000569325               0.999999992              -0.000023854              -0.000582202               0.999999992              -0.000031784              -0.000601422               0.999999992              -0.000040748              -0.000625303               0.999999992              -0.000050223              -0.000652548               0.999999992              -0.000059826              -0.000682196               0.999999992              -0.000069152              -0.000713337               0.999999992              -0.000078208              -0.000745455               0.999999992              -0.000086815              -0.000778261               0.999999992              -0.000094519              -0.000811501               0.999999992              -0.000101188              -0.000844963               0.999999992              -0.000106687              -0.000878504               0.999999992              -0.000111169              -0.000912100               0.999999992              -0.000115002              -0.000945863               0.999999992              -0.000052158              -0.000632684               0.999999992              -0.000019881              -0.000614263               0.999999992              -0.000009087              -0.000607432               0.999999992              -0.000008034              -0.000610713               0.999999992              -0.000011794              -0.000621780               0.999999992              -0.000017785              -0.000638698               0.999999992              -0.000024798              -0.000660124               0.999999992              -0.000032327              -0.000684981               0.999999992              -0.000040189              -0.000712321               0.999999992              -0.000047958              -0.000741459               0.999999992              -0.000055461              -0.000771737               0.999999992              -0.000062522              -0.000802873               0.999999992              -0.000068656              -0.000834667               0.999999992              -0.000073527              -0.000866806               0.999999992              -0.000076924              -0.000899124               0.999999992              -0.000078527              -0.000931517               0.999999992              -0.000078418              -0.000963996               0.999999992              -0.000039711              -0.000656112               0.999999992              -0.000013413              -0.000646874               0.999999992              -0.000003550              -0.000643362               0.999999992              -0.000001622              -0.000647160               0.999999992              -0.000003711              -0.000657476               0.999999992              -0.000007813              -0.000673039               0.999999992              -0.000012793              -0.000692814               0.999999992              -0.000018326              -0.000715932               0.999999992              -0.000024279              -0.000741659               0.999999992              -0.000030278              -0.000769347               0.999999992              -0.000036016              -0.000798462               0.999999992              -0.000041332              -0.000828560               0.999999992              -0.000045896              -0.000859437               0.999999992              -0.000049282              -0.000890909               0.999999992              -0.000050986              -0.000922618               0.999999992              -0.000050507              -0.000954414               0.999999992              -0.000047328              -0.000986332               0.999999992              -0.000026717              -0.000673044               0.999999992              -0.000008279              -0.000671234               0.999999992              -0.000000717              -0.000671087               0.999999992               0.000001295              -0.000676008               0.999999992               0.000000363              -0.000686211               0.999999992              -0.000002043              -0.000701074               0.999999992              -0.000005233              -0.000719809               0.999999992              -0.000008796              -0.000741820               0.999999992              -0.000012722              -0.000766455               0.999999992              -0.000016816              -0.000793177               0.999999992              -0.000020789              -0.000821521               0.999999992              -0.000024432              -0.000851088               0.999999992              -0.000027450              -0.000881649               0.999999992              -0.000029463              -0.000913003               0.999999992              -0.000030014              -0.000944886               0.999999992              -0.000028580              -0.000976987               0.999999992              -0.000024288              -0.001009058               0.999999992              -0.000013418              -0.000683148               0.999999992              -0.000003993              -0.000686202               0.999999992               0.000000162              -0.000688637               0.999999992               0.000001428              -0.000694657               0.999999992               0.000001148              -0.000705057               0.999999992               0.000000056              -0.000719653               0.999999992              -0.000001447              -0.000737851               0.999999992              -0.000003184              -0.000759104               0.999999992              -0.000005176              -0.000783003               0.999999992              -0.000007270              -0.000809123               0.999999992              -0.000009353              -0.000837080               0.999999992              -0.000011244              -0.000866488               0.999999992              -0.000012701              -0.000897078               0.999999992              -0.000013547              -0.000928675               0.999999992              -0.000013551              -0.000960938               0.999999992              -0.000012396              -0.000993601               0.999999992              -0.000009546              -0.001026216               0.999999992              -0.000000000              -0.000686442               0.999999992               0.000000000              -0.000691234               0.999999992              -0.000000000              -0.000694670               0.999999992              -0.000000000              -0.000701108               0.999999992               0.000000000              -0.000711600               0.999999992              -0.000000000              -0.000726087               0.999999992              -0.000000000              -0.000744140               0.999999992               0.000000000              -0.000765179               0.999999992              -0.000000000              -0.000788815               0.999999992              -0.000000000              -0.000814722               0.999999992               0.000000000              -0.000842503               0.999999992              -0.000000000              -0.000871896               0.999999992               0.000000000              -0.000902591               0.999999992               0.000000000              -0.000934237               0.999999992               0.000000000              -0.000966617               0.999999992              -0.000000000              -0.000999441               0.999999992               0.000000000              -0.001032237               0.999999992               0.000138607              -0.000000000               0.999999992               0.000165561               0.000000000               0.999999992               0.000178048               0.000000000               0.999999992               0.000185221               0.000000000               0.999999992               0.000190697              -0.000000000               0.999999992               0.000196017               0.000000000               0.999999992               0.000201809               0.000000000               0.999999992               0.000208252              -0.000000000               0.999999992               0.000215575               0.000000000               0.999999992               0.000223879               0.000000000               0.999999992               0.000233217               0.000000000               0.999999992               0.000243471               0.000000000               0.999999992               0.000254632               0.000000000               0.999999992               0.000266813               0.000000000               0.999999992               0.000279949               0.000000000               0.999999992               0.000293881               0.000000000               0.999999992               0.000308332               0.000000000               0.999999992               0.000137703              -0.000067971               0.999999992               0.000163279              -0.000058708               0.999999992               0.000175006              -0.000055745               0.999999992               0.000181761              -0.000056188               0.999999992               0.000187072              -0.000058653               0.999999992               0.000192338              -0.000062275               0.999999992               0.000198097              -0.000066600               0.999999992               0.000204586              -0.000071448               0.999999992               0.000211957              -0.000076710               0.999999992               0.000220304              -0.000082195               0.999999992               0.000229625              -0.000087814               0.999999992               0.000239858              -0.000093545               0.999999992               0.000251016              -0.000099397               0.999999992               0.000263074              -0.000105200               0.999999992               0.000275954              -0.000110739               0.999999992               0.000289537              -0.000115629               0.999999992               0.000303635              -0.000119342               0.999999992               0.000135158              -0.000135116               0.999999992               0.000156689              -0.000116856               0.999999992               0.000166206              -0.000111339               0.999999992               0.000171924              -0.000112545               0.999999992               0.000176799              -0.000117643               0.999999992               0.000181924              -0.000124938               0.999999992               0.000187751              -0.000133565               0.999999992               0.000194440              -0.000143202               0.999999992               0.000202069              -0.000153615               0.999999992               0.000210695              -0.000164569               0.999999992               0.000220308              -0.000175787               0.999999992               0.000230807              -0.000187187               0.999999992               0.000242140              -0.000198718               0.999999992               0.000254198              -0.000210089               0.999999992               0.000266856              -0.000220929               0.999999992               0.000279934              -0.000230777               0.999999992               0.000293325              -0.000239066               0.999999992               0.000131215              -0.000200691               0.999999992               0.000146412              -0.000173890               0.999999992               0.000152733              -0.000166501               0.999999992               0.000157069              -0.000168967               0.999999992               0.000161519              -0.000176913               0.999999992               0.000166732              -0.000188024               0.999999992               0.000172927              -0.000201028               0.999999992               0.000180164              -0.000215457               0.999999992               0.000188438              -0.000231069               0.999999992               0.000197664              -0.000247283               0.999999992               0.000207745              -0.000263900               0.999999992               0.000218593              -0.000280807               0.999999992               0.000230100              -0.000297823               0.999999992               0.000242093              -0.000314584               0.999999992               0.000254434              -0.000330666               0.999999992               0.000266989              -0.000345665               0.999999992               0.000279707              -0.000359102               0.999999992               0.000126005              -0.000264048               0.999999992               0.000132981              -0.000229402               0.999999992               0.000135725              -0.000220994               0.999999992               0.000138822              -0.000225322               0.999999992               0.000143236              -0.000236443               0.999999992               0.000149011              -0.000251407               0.999999992               0.000156076              -0.000268913               0.999999992               0.000164253              -0.000288192               0.999999992               0.000173411              -0.000308737               0.999999992               0.000183429              -0.000330048               0.999999992               0.000194127              -0.000351927               0.999999992               0.000205375              -0.000374105               0.999999992               0.000217014              -0.000396443               0.999999992               0.000228904              -0.000418462               0.999999992               0.000240910              -0.000439743               0.999999992               0.000252998              -0.000460137               0.999999992               0.000265240              -0.000479378               0.999999992               0.000119465              -0.000324628               0.999999992               0.000117021              -0.000283147               0.999999992               0.000116515              -0.000274590               0.999999992               0.000119041              -0.000281224               0.999999992               0.000124090              -0.000295732               0.999999992               0.000130949              -0.000314677               0.999999992               0.000139261              -0.000336667               0.999999992               0.000148697              -0.000360560               0.999999992               0.000158996              -0.000385782               0.999999992               0.000169963              -0.000412057               0.999999992               0.000181421              -0.000438906               0.999999992               0.000193226              -0.000466192               0.999999992               0.000205147              -0.000493559               0.999999992               0.000217040              -0.000520448               0.999999992               0.000228969              -0.000546770               0.999999992               0.000240910              -0.000572355               0.999999992               0.000252814              -0.000597269               0.999999992               0.000111683              -0.000381815               0.999999992               0.000099533              -0.000334948               0.999999992               0.000096654              -0.000326909               0.999999992               0.000099506              -0.000336105               0.999999992               0.000105809              -0.000354112               0.999999992               0.000114166              -0.000377094               0.999999992               0.000124043              -0.000403356               0.999999992               0.000134949              -0.000431685               0.999999992               0.000146537              -0.000461510               0.999999992               0.000158592              -0.000492339               0.999999992               0.000170879              -0.000523900               0.999999992               0.000183233              -0.000555830               0.999999992               0.000195433              -0.000587702               0.999999992               0.000207475              -0.000619094               0.999999992               0.000219350              -0.000649944               0.999999992               0.000230993              -0.000680287               0.999999992               0.000242377              -0.000709855               0.999999992               0.000102966              -0.000434868               0.999999992               0.000081494              -0.000384680               0.999999992               0.000077381              -0.000377635               0.999999992               0.000081480              -0.000389421               0.999999992               0.000089501              -0.000410854               0.999999992               0.000099694              -0.000437672               0.999999992               0.000111304              -0.000468078               0.999999992               0.000123756              -0.000500753               0.999999992               0.000136625              -0.000534835               0.999999992               0.000149599              -0.000570009               0.999999992               0.000162477              -0.000605993               0.999999992               0.000175127              -0.000642169               0.999999992               0.000187392              -0.000678116               0.999999992               0.000199275              -0.000713595               0.999999992               0.000210816              -0.000748587               0.999999992               0.000221932              -0.000783069               0.999999992               0.000232640              -0.000816678               0.999999992               0.000093739              -0.000482910               0.999999992               0.000063606              -0.000432248               0.999999992               0.000059827              -0.000426345               0.999999992               0.000065772              -0.000440518               0.999999992               0.000075885              -0.000465105               0.999999992               0.000088017              -0.000495658               0.999999992               0.000101377              -0.000530105               0.999999992               0.000115127              -0.000566971               0.999999992               0.000128847              -0.000605257               0.999999992               0.000142404              -0.000644674               0.999999992               0.000155546              -0.000684652               0.999999992               0.000168129              -0.000724637               0.999999992               0.000180152              -0.000764274               0.999999992               0.000191668              -0.000803479               0.999999992               0.000202799              -0.000842223               0.999999992               0.000213662              -0.000880344               0.999999992               0.000224320              -0.000917691               0.999999992               0.000084784              -0.000527646               0.999999992               0.000049816              -0.000482578               0.999999992               0.000043478              -0.000472962               0.999999992               0.000047948              -0.000482249               0.999999992               0.000057010              -0.000502131               0.999999992               0.000068067              -0.000528449               0.999999992               0.000080135              -0.000559142               0.999999992               0.000092761              -0.000592591               0.999999992               0.000105143              -0.000627822               0.999999992               0.000117368              -0.000664209               0.999999992               0.000129202              -0.000701427               0.999999992               0.000140519              -0.000739008               0.999999992               0.000151186              -0.000776550               0.999999992               0.000161217              -0.000814006               0.999999992               0.000170807              -0.000851254               0.999999992               0.000180329              -0.000888189               0.999999992               0.000189925              -0.000924637               0.999999992               0.000074803              -0.000567883               0.999999992               0.000037982              -0.000530532               0.999999992               0.000029238              -0.000520031               0.999999992               0.000031785              -0.000525691               0.999999992               0.000039311              -0.000541561               0.999999992               0.000048915              -0.000564021               0.999999992               0.000059596              -0.000591052               0.999999992               0.000070809              -0.000621275               0.999999992               0.000081894              -0.000653579               0.999999992               0.000092654              -0.000687150               0.999999992               0.000103137              -0.000721683               0.999999992               0.000113143              -0.000756720               0.999999992               0.000122387              -0.000792011               0.999999992               0.000130818              -0.000827306               0.999999992               0.000138540              -0.000862637               0.999999992               0.000145850              -0.000897937               0.999999992               0.000153167              -0.000933257               0.999999992               0.000063915              -0.000603074               0.999999992               0.000028004              -0.000574942               0.999999992               0.000017671              -0.000565571               0.999999992               0.000018201              -0.000569325               0.999999992               0.000023854              -0.000582202               0.999999992               0.000031784              -0.000601422               0.999999992               0.000040748              -0.000625303               0.999999992               0.000050223              -0.000652548               0.999999992               0.000059826              -0.000682196               0.999999992               0.000069152              -0.000713337               0.999999992               0.000078208              -0.000745455               0.999999992               0.000086815              -0.000778261               0.999999992               0.000094519              -0.000811501               0.999999992               0.000101188              -0.000844963               0.999999992               0.000106687              -0.000878504               0.999999992               0.000111169              -0.000912100               0.999999992               0.000115002              -0.000945863               0.999999992               0.000052158              -0.000632684               0.999999992               0.000019881              -0.000614263               0.999999992               0.000009087              -0.000607432               0.999999992               0.000008034              -0.000610713               0.999999992               0.000011794              -0.000621780               0.999999992               0.000017785              -0.000638698               0.999999992               0.000024798              -0.000660124               0.999999992               0.000032327              -0.000684981               0.999999992               0.000040189              -0.000712321               0.999999992               0.000047958              -0.000741459               0.999999992               0.000055461              -0.000771737               0.999999992               0.000062522              -0.000802873               0.999999992               0.000068656              -0.000834667               0.999999992               0.000073527              -0.000866806               0.999999992               0.000076924              -0.000899124               0.999999992               0.000078527              -0.000931517               0.999999992               0.000078418              -0.000963996               0.999999992               0.000039711              -0.000656112               0.999999992               0.000013413              -0.000646874               0.999999992               0.000003550              -0.000643362               0.999999992               0.000001622              -0.000647160               0.999999992               0.000003711              -0.000657476               0.999999992               0.000007813              -0.000673039               0.999999992               0.000012793              -0.000692814               0.999999992               0.000018326              -0.000715932               0.999999992               0.000024279              -0.000741659               0.999999992               0.000030278              -0.000769347               0.999999992               0.000036016              -0.000798462               0.999999992               0.000041332              -0.000828560               0.999999992               0.000045896              -0.000859437               0.999999992               0.000049282              -0.000890909               0.999999992               0.000050986              -0.000922618               0.999999992               0.000050507              -0.000954414               0.999999992               0.000047328              -0.000986332               0.999999992               0.000026717              -0.000673044               0.999999992               0.000008279              -0.000671234               0.999999992               0.000000717              -0.000671087               0.999999992              -0.000001295              -0.000676008               0.999999992              -0.000000363              -0.000686211               0.999999992               0.000002043              -0.000701074               0.999999992               0.000005233              -0.000719809               0.999999992               0.000008796              -0.000741820               0.999999992               0.000012722              -0.000766455               0.999999992               0.000016816              -0.000793177               0.999999992               0.000020789              -0.000821521               0.999999992               0.000024432              -0.000851088               0.999999992               0.000027450              -0.000881649               0.999999992               0.000029463              -0.000913003               0.999999992               0.000030014              -0.000944886               0.999999992               0.000028580              -0.000976987               0.999999992               0.000024288              -0.001009058               0.999999992               0.000013418              -0.000683148               0.999999992               0.000003993              -0.000686202               0.999999992              -0.000000162              -0.000688637               0.999999992              -0.000001428              -0.000694657               0.999999992              -0.000001148              -0.000705057               0.999999992              -0.000000056              -0.000719653               0.999999992               0.000001447              -0.000737851               0.999999992               0.000003184              -0.000759104               0.999999992               0.000005176              -0.000783003               0.999999992               0.000007270              -0.000809123               0.999999992               0.000009353              -0.000837080               0.999999992               0.000011244              -0.000866488               0.999999992               0.000012701              -0.000897078               0.999999992               0.000013547              -0.000928675               0.999999992               0.000013551              -0.000960938               0.999999992               0.000012396              -0.000993601               0.999999992               0.000009546              -0.001026216               0.999999992              -0.000000000              -0.000686442               0.999999992               0.000000000              -0.000691234               0.999999992              -0.000000000              -0.000694670               0.999999992              -0.000000000              -0.000701108               0.999999992               0.000000000              -0.000711600               0.999999992              -0.000000000              -0.000726087               0.999999992              -0.000000000              -0.000744140               0.999999992               0.000000000              -0.000765179               0.999999992              -0.000000000              -0.000788815               0.999999992              -0.000000000              -0.000814722               0.999999992               0.000000000              -0.000842503               0.999999992              -0.000000000              -0.000871896               0.999999992               0.000000000              -0.000902591               0.999999992               0.000000000              -0.000934237               0.999999992               0.000000000              -0.000966617               0.999999992              -0.000000000              -0.000999441               0.999999992               0.000000000              -0.001032237               0.999999992               0.000138607              -0.000000000               0.999999992               0.000165561               0.000000000               0.999999992               0.000178048               0.000000000               0.999999992               0.000185221               0.000000000               0.999999992               0.000190697              -0.000000000               0.999999992               0.000196017               0.000000000               0.999999992               0.000201809               0.000000000               0.999999992               0.000208252              -0.000000000               0.999999992               0.000215575               0.000000000               0.999999992               0.000223879               0.000000000               0.999999992               0.000233217               0.000000000               0.999999992               0.000243471               0.000000000               0.999999992               0.000254632               0.000000000               0.999999992               0.000266813               0.000000000               0.999999992               0.000279949               0.000000000               0.999999992               0.000293881               0.000000000               0.999999992               0.000308332               0.000000000               0.999999992               0.000137703               0.000067971               0.999999992               0.000163279               0.000058708               0.999999992               0.000175006               0.000055745               0.999999992               0.000181761               0.000056188               0.999999992               0.000187072               0.000058653               0.999999992               0.000192338               0.000062275               0.999999992               0.000198097               0.000066600               0.999999992               0.000204586               0.000071448               0.999999992               0.000211957               0.000076710               0.999999992               0.000220304               0.000082195               0.999999992               0.000229625               0.000087814               0.999999992               0.000239858               0.000093545               0.999999992               0.000251016               0.000099397               0.999999992               0.000263074               0.000105200               0.999999992               0.000275954               0.000110739               0.999999992               0.000289537               0.000115629               0.999999992               0.000303635               0.000119342               0.999999992               0.000135158               0.000135116               0.999999992               0.000156689               0.000116856               0.999999992               0.000166206               0.000111339               0.999999992               0.000171924               0.000112545               0.999999992               0.000176799               0.000117643               0.999999992               0.000181924               0.000124938               0.999999992               0.000187751               0.000133565               0.999999992               0.000194440               0.000143202               0.999999992               0.000202069               0.000153615               0.999999992               0.000210695               0.000164569               0.999999992               0.000220308               0.000175787               0.999999992               0.000230807               0.000187187               0.999999992               0.000242140               0.000198718               0.999999992               0.000254198               0.000210089               0.999999992               0.000266856               0.000220929               0.999999992               0.000279934               0.000230777               0.999999992               0.000293325               0.000239066               0.999999992               0.000131215               0.000200691               0.999999992               0.000146412               0.000173890               0.999999992               0.000152733               0.000166501               0.999999992               0.000157069               0.000168967               0.999999992               0.000161519               0.000176913               0.999999992               0.000166732               0.000188024               0.999999992               0.000172927               0.000201028               0.999999992               0.000180164               0.000215457               0.999999992               0.000188438               0.000231069               0.999999992               0.000197664               0.000247283               0.999999992               0.000207745               0.000263900               0.999999992               0.000218593               0.000280807               0.999999992               0.000230100               0.000297823               0.999999992               0.000242093               0.000314584               0.999999992               0.000254434               0.000330666               0.999999992               0.000266989               0.000345665               0.999999992               0.000279707               0.000359102               0.999999992               0.000126005               0.000264048               0.999999992               0.000132981               0.000229402               0.999999992               0.000135725               0.000220994               0.999999992               0.000138822               0.000225322               0.999999992               0.000143236               0.000236443               0.999999992               0.000149011               0.000251407               0.999999992               0.000156076               0.000268913               0.999999992               0.000164253               0.000288192               0.999999992               0.000173411               0.000308737               0.999999992               0.000183429               0.000330048               0.999999992               0.000194127               0.000351927               0.999999992               0.000205375               0.000374105               0.999999992               0.000217014               0.000396443               0.999999992               0.000228904               0.000418462               0.999999992               0.000240910               0.000439743               0.999999992               0.000252998               0.000460137               0.999999992               0.000265240               0.000479378               0.999999992               0.000119465               0.000324628               0.999999992               0.000117021               0.000283147               0.999999992               0.000116515               0.000274590               0.999999992               0.000119041               0.000281224               0.999999992               0.000124090               0.000295732               0.999999992               0.000130949               0.000314677               0.999999992               0.000139261               0.000336667               0.999999992               0.000148697               0.000360560               0.999999992               0.000158996               0.000385782               0.999999992               0.000169963               0.000412057               0.999999992               0.000181421               0.000438906               0.999999992               0.000193226               0.000466192               0.999999992               0.000205147               0.000493559               0.999999992               0.000217040               0.000520448               0.999999992               0.000228969               0.000546770               0.999999992               0.000240910               0.000572355               0.999999992               0.000252814               0.000597269               0.999999992               0.000111683               0.000381815               0.999999992               0.000099533               0.000334948               0.999999992               0.000096654               0.000326909               0.999999992               0.000099506               0.000336105               0.999999992               0.000105809               0.000354112               0.999999992               0.000114166               0.000377094               0.999999992               0.000124043               0.000403356               0.999999992               0.000134949               0.000431685               0.999999992               0.000146537               0.000461510               0.999999992               0.000158592               0.000492339               0.999999992               0.000170879               0.000523900               0.999999992               0.000183233               0.000555830               0.999999992               0.000195433               0.000587702               0.999999992               0.000207475               0.000619094               0.999999992               0.000219350               0.000649944               0.999999992               0.000230993               0.000680287               0.999999992               0.000242377               0.000709855               0.999999992               0.000102966               0.000434868               0.999999992               0.000081494               0.000384680               0.999999992               0.000077381               0.000377635               0.999999992               0.000081480               0.000389421               0.999999992               0.000089501               0.000410854               0.999999992               0.000099694               0.000437672               0.999999992               0.000111304               0.000468078               0.999999992               0.000123756               0.000500753               0.999999992               0.000136625               0.000534835               0.999999992               0.000149599               0.000570009               0.999999992               0.000162477               0.000605993               0.999999992               0.000175127               0.000642169               0.999999992               0.000187392               0.000678116               0.999999992               0.000199275               0.000713595               0.999999992               0.000210816               0.000748587               0.999999992               0.000221932               0.000783069               0.999999992               0.000232640               0.000816678               0.999999992               0.000093739               0.000482910               0.999999992               0.000063606               0.000432248               0.999999992               0.000059827               0.000426345               0.999999992               0.000065772               0.000440518               0.999999992               0.000075885               0.000465105               0.999999992               0.000088017               0.000495658               0.999999992               0.000101377               0.000530105               0.999999992               0.000115127               0.000566971               0.999999992               0.000128847               0.000605257               0.999999992               0.000142404               0.000644674               0.999999992               0.000155546               0.000684652               0.999999992               0.000168129               0.000724637               0.999999992               0.000180152               0.000764274               0.999999992               0.000191668               0.000803479               0.999999992               0.000202799               0.000842223               0.999999992               0.000213662               0.000880344               0.999999992               0.000224320               0.000917691               0.999999992               0.000084784               0.000527646               0.999999992               0.000049816               0.000482578               0.999999992               0.000043478               0.000472962               0.999999992               0.000047948               0.000482249               0.999999992               0.000057010               0.000502131               0.999999992               0.000068067               0.000528449               0.999999992               0.000080135               0.000559142               0.999999992               0.000092761               0.000592591               0.999999992               0.000105143               0.000627822               0.999999992               0.000117368               0.000664209               0.999999992               0.000129202               0.000701427               0.999999992               0.000140519               0.000739008               0.999999992               0.000151186               0.000776550               0.999999992               0.000161217               0.000814006               0.999999992               0.000170807               0.000851254               0.999999992               0.000180329               0.000888189               0.999999992               0.000189925               0.000924637               0.999999992               0.000074803               0.000567883               0.999999992               0.000037982               0.000530532               0.999999992               0.000029238               0.000520031               0.999999992               0.000031785               0.000525691               0.999999992               0.000039311               0.000541561               0.999999992               0.000048915               0.000564021               0.999999992               0.000059596               0.000591052               0.999999992               0.000070809               0.000621275               0.999999992               0.000081894               0.000653579               0.999999992               0.000092654               0.000687150               0.999999992               0.000103137               0.000721683               0.999999992               0.000113143               0.000756720               0.999999992               0.000122387               0.000792011               0.999999992               0.000130818               0.000827306               0.999999992               0.000138540               0.000862637               0.999999992               0.000145850               0.000897937               0.999999992               0.000153167               0.000933257               0.999999992               0.000063915               0.000603074               0.999999992               0.000028004               0.000574942               0.999999992               0.000017671               0.000565571               0.999999992               0.000018201               0.000569325               0.999999992               0.000023854               0.000582202               0.999999992               0.000031784               0.000601422               0.999999992               0.000040748               0.000625303               0.999999992               0.000050223               0.000652548               0.999999992               0.000059826               0.000682196               0.999999992               0.000069152               0.000713337               0.999999992               0.000078208               0.000745455               0.999999992               0.000086815               0.000778261               0.999999992               0.000094519               0.000811501               0.999999992               0.000101188               0.000844963               0.999999992               0.000106687               0.000878504               0.999999992               0.000111169               0.000912100               0.999999992               0.000115002               0.000945863               0.999999992               0.000052158               0.000632684               0.999999992               0.000019881               0.000614263               0.999999992               0.000009087               0.000607432               0.999999992               0.000008034               0.000610713               0.999999992               0.000011794               0.000621780               0.999999992               0.000017785               0.000638698               0.999999992               0.000024798               0.000660124               0.999999992               0.000032327               0.000684981               0.999999992               0.000040189               0.000712321               0.999999992               0.000047958               0.000741459               0.999999992               0.000055461               0.000771737               0.999999992               0.000062522               0.000802873               0.999999992               0.000068656               0.000834667               0.999999992               0.000073527               0.000866806               0.999999992               0.000076924               0.000899124               0.999999992               0.000078527               0.000931517               0.999999992               0.000078418               0.000963996               0.999999992               0.000039711               0.000656112               0.999999992               0.000013413               0.000646874               0.999999992               0.000003550               0.000643362               0.999999992               0.000001622               0.000647160               0.999999992               0.000003711               0.000657476               0.999999992               0.000007813               0.000673039               0.999999992               0.000012793               0.000692814               0.999999992               0.000018326               0.000715932               0.999999992               0.000024279               0.000741659               0.999999992               0.000030278               0.000769347               0.999999992               0.000036016               0.000798462               0.999999992               0.000041332               0.000828560               0.999999992               0.000045896               0.000859437               0.999999992               0.000049282               0.000890909               0.999999992               0.000050986               0.000922618               0.999999992               0.000050507               0.000954414               0.999999992               0.000047328               0.000986332               0.999999992               0.000026717               0.000673044               0.999999992               0.000008279               0.000671234               0.999999992               0.000000717               0.000671087               0.999999992              -0.000001295               0.000676008               0.999999992              -0.000000363               0.000686211               0.999999992               0.000002043               0.000701074               0.999999992               0.000005233               0.000719809               0.999999992               0.000008796               0.000741820               0.999999992               0.000012722               0.000766455               0.999999992               0.000016816               0.000793177               0.999999992               0.000020789               0.000821521               0.999999992               0.000024432               0.000851088               0.999999992               0.000027450               0.000881649               0.999999992               0.000029463               0.000913003               0.999999992               0.000030014               0.000944886               0.999999992               0.000028580               0.000976987               0.999999992               0.000024288               0.001009058               0.999999992               0.000013418               0.000683148               0.999999992               0.000003993               0.000686202               0.999999992              -0.000000162               0.000688637               0.999999992              -0.000001428               0.000694657               0.999999992              -0.000001148               0.000705057               0.999999992              -0.000000056               0.000719653               0.999999992               0.000001447               0.000737851               0.999999992               0.000003184               0.000759104               0.999999992               0.000005176               0.000783003               0.999999992               0.000007270               0.000809123               0.999999992               0.000009353               0.000837080               0.999999992               0.000011244               0.000866488               0.999999992               0.000012701               0.000897078               0.999999992               0.000013547               0.000928675               0.999999992               0.000013551               0.000960938               0.999999992               0.000012396               0.000993601               0.999999992               0.000009546               0.001026216               0.999999992              -0.000000000               0.000686442               0.999999992               0.000000000               0.000691234               0.999999992              -0.000000000               0.000694670               0.999999992               0.000000000               0.000701108               0.999999992              -0.000000000               0.000711600               0.999999992               0.000000000               0.000726087               0.999999992               0.000000000               0.000744140               0.999999992               0.000000000               0.000765179               0.999999992              -0.000000000               0.000788815               0.999999992              -0.000000000               0.000814722               0.999999992              -0.000000000               0.000842503               0.999999992              -0.000000000               0.000871896               0.999999992              -0.000000000               0.000902591               0.999999992              -0.000000000               0.000934237               0.999999992              -0.000000000               0.000966617               0.999999992              -0.000000000               0.000999441               0.999999992              -0.000000000               0.001032237               0.999999992 </DataArray>
<DataArray type="Float64"                                    Name="defo"                                                      NumberOfComponents=" 3" format="ascii">
             -0.000138607               0.000000000               0.999999992              -0.000165561               0.000000000               0.999999992              -0.000178048               0.000000000               0.999999992              -0.000185221               0.000000000               0.999999992              -0.000190697               0.000000000               0.999999992              -0.000196017               0.000000000               0.999999992              -0.000201809               0.000000000               0.999999992              -0.000208252               0.000000000               0.999999992              -0.000215575               0.000000000               0.999999992              -0.000223879               0.000000000               0.999999992              -0.000233217               0.000000000               0.999999992              -0.000243471               0.000000000               0.999999992              -0.000254632               0.000000000               0.999999992              -0.000266813               0.000000000               0.999999992              -0.000279949               0.000000000               0.999999992              -0.000293881               0.000000000               0.999999992              -0.000308332               0.000000000               0.999999992              -0.000137703               0.000067971               0.999999992              -0.000163279               0.000058708               0.999999992              -0.000175006               0.000055745               0.999999992              -0.000181761               0.000056188               0.999999992              -0.000187072               0.000058653               0.999999992              -0.000192338               0.000062275               0.999999992              -0.000198097               0.000066600               0.999999992              -0.000204586               0.000071448               0.999999992              -0.000211957               0.000076710               0.999999992              -0.000220304               0.000082195               0.999999992              -0.000229625               0.000087814               0.999999992              -0.000239858               0.000093545               0.999999992              -0.000251016               0.000099397               0.999999992              -0.000263074               0.000105200               0.999999992              -0.000275954               0.000110739               0.999999992              -0.000289537               0.000115629               0.999999992              -0.000303635               0.000119342               0.999999992              -0.000135158               0.000135116               0.999999992              -0.000156689               0.000116856               0.999999992              -0.000166206               0.000111339               0.999999992              -0.000171924               0.000112545               0.999999992              -0.000176799               0.000117643               0.999999992              -0.000181924               0.000124938               0.999999992              -0.000187751               0.000133565               0.999999992              -0.000194440               0.000143202               0.999999992              -0.000202069               0.000153615               0.999999992              -0.000210695               0.000164569               0.999999992              -0.000220308               0.000175787               0.999999992              -0.000230807               0.000187187               0.999999992              -0.000242140               0.000198718               0.999999992              -0.000254198               0.000210089               0.999999992              -0.000266856               0.000220929               0.999999992              -0.000279934               0.000230777               0.999999992              -0.000293325               0.000239066               0.999999992              -0.000131215               0.000200691               0.999999992              -0.000146412               0.000173890               0.999999992              -0.000152733               0.000166501               0.999999992              -0.000157069               0.000168967               0.999999992              -0.000161519               0.000176913               0.999999992              -0.000166732               0.000188024               0.999999992              -0.000172927               0.000201028               0.999999992              -0.000180164               0.000215457               0.999999992              -0.000188438               0.000231069               0.999999992              -0.000197664               0.000247283               0.999999992              -0.000207745               0.000263900               0.999999992              -0.000218593               0.000280807               0.999999992              -0.000230100               0.000297823               0.999999992              -0.000242093               0.000314584               0.999999992              -0.000254434               0.000330666               0.999999992              -0.000266989               0.000345665               0.999999992              -0.000279707               0.000359102               0.999999992              -0.000126005               0.000264048               0.999999992              -0.000132981               0.000229402               0.999999992              -0.000135725               0.000220994               0.999999992              -0.000138822               0.000225322               0.999999992              -0.000143236               0.000236443               0.999999992              -0.000149011               0.000251407               0.999999992              -0.000156076               0.000268913               0.999999992              -0.000164253               0.000288192               0.999999992              -0.000173411               0.000308737               0.999999992              -0.000183429               0.000330048               0.999999992              -0.000194127               0.000351927               0.999999992              -0.000205375               0.000374105               0.999999992              -0.000217014               0.000396443               0.999999992              -0.000228904               0.000418462               0.999999992              -0.000240910               0.000439743               0.999999992              -0.000252998               0.000460137               0.999999992              -0.000265240               0.000479378               0.999999992              -0.000119465               0.000324628               0.999999992              -0.000117021               0.000283147               0.999999992              -0.000116515               0.000274590               0.999999992              -0.000119041               0.000281224               0.999999992              -0.000124090               0.000295732               0.999999992              -0.000130949               0.000314677               0.999999992              -0.000139261               0.000336667               0.999999992              -0.000148697               0.000360560               0.999999992              -0.000158996               0.000385782               0.999999992              -0.000169963               0.000412057               0.999999992              -0.000181421               0.000438906               0.999999992              -0.000193226               0.000466192               0.999999992              -0.000205147               0.000493559               0.999999992              -0.000217040               0.000520448               0.999999992              -0.000228969               0.000546770               0.999999992              -0.000240910               0.000572355               0.999999992              -0.000252814               0.000597269               0.999999992              -0.000111683               0.000381815               0.999999992              -0.000099533               0.000334948               0.999999992              -0.000096654               0.000326909               0.999999992              -0.000099506               0.000336105               0.999999992              -0.000105809               0.000354112               0.999999992              -0.000114166               0.000377094               0.999999992              -0.000124043               0.000403356               0.999999992              -0.000134949               0.000431685               0.999999992              -0.000146537               0.000461510               0.999999992              -0.000158592               0.000492339               0.999999992              -0.000170879               0.000523900               0.999999992              -0.000183233               0.000555830               0.999999992              -0.000195433               0.000587702               0.999999992              -0.000207475               0.000619094               0.999999992              -0.000219350               0.000649944               0.999999992              -0.000230993               0.000680287               0.999999992              -0.000242377               0.000709855               0.999999992              -0.000102966               0.000434868               0.999999992              -0.000081494               0.000384680               0.999999992              -0.000077381               0.000377635               0.999999992              -0.000081480               0.000389421               0.999999992              -0.000089501               0.000410854               0.999999992              -0.000099694               0.000437672               0.999999992              -0.000111304               0.000468078               0.999999992              -0.000123756               0.000500753               0.999999992              -0.000136625               0.000534835               0.999999992              -0.000149599               0.000570009               0.999999992              -0.000162477               0.000605993               0.999999992              -0.000175127               0.000642169               0.999999992              -0.000187392               0.000678116               0.999999992              -0.000199275               0.000713595               0.999999992              -0.000210816               0.000748587               0.999999992              -0.000221932               0.000783069               0.999999992              -0.000232640               0.000816678               0.999999992              -0.000093739               0.000482910               0.999999992              -0.000063606               0.000432248               0.999999992              -0.000059827               0.000426345               0.999999992              -0.000065772               0.000440518               0.999999992              -0.000075885               0.000465105               0.999999992              -0.000088017               0.000495658               0.999999992              -0.000101377               0.000530105               0.999999992              -0.000115127               0.000566971               0.999999992              -0.000128847               0.000605257               0.999999992              -0.000142404               0.000644674               0.999999992              -0.000155546               0.000684652               0.999999992              -0.000168129               0.000724637               0.999999992              -0.000180152               0.000764274               0.999999992              -0.000191668               0.000803479               0.999999992              -0.000202799               0.000842223               0.999999992              -0.000213662               0.000880344               0.999999992              -0.000224320               0.000917691               0.999999992              -0.000084784               0.000527646               0.999999992              -0.000049816               0.000482578               0.999999992              -0.000043478               0.000472962               0.999999992              -0.000047948               0.000482249               0.999999992              -0.000057010               0.000502131               0.999999992              -0.000068067               0.000528449               0.999999992              -0.000080135               0.000559142               0.999999992              -0.000092761               0.000592591               0.999999992              -0.000105143               0.000627822               0.999999992              -0.000117368               0.000664209               0.999999992              -0.000129202               0.000701427               0.999999992              -0.000140519               0.000739008               0.999999992              -0.000151186               0.000776550               0.999999992              -0.000161217               0.000814006               0.999999992              -0.000170807               0.000851254               0.999999992              -0.000180329               0.000888189               0.999999992              -0.000189925               0.000924637               0.999999992              -0.000074803               0.000567883               0.999999992              -0.000037982               0.000530532               0.999999992              -0.000029238               0.000520031               0.999999992              -0.000031785               0.000525691               0.999999992              -0.000039311               0.000541561               0.999999992              -0.000048915               0.000564021               0.999999992              -0.000059596               0.000591052               0.999999992              -0.000070809               0.000621275               0.999999992              -0.000081894               0.000653579               0.999999992              -0.000092654               0.000687150               0.999999992              -0.000103137               0.000721683               0.999999992              -0.000113143               0.000756720               0.999999992              -0.000122387               0.000792011               0.999999992              -0.000130818               0.000827306               0.999999992              -0.000138540               0.000862637               0.999999992              -0.000145850               0.000897937               0.999999992              -0.000153167               0.000933257               0.999999992              -0.000063915               0.000603074               0.999999992              -0.000028004               0.000574942               0.999999992              -0.000017671               0.000565571               0.999999992              -0.000018201               0.000569325               0.999999992              -0.000023854               0.000582202               0.999999992              -0.000031784               0.000601422               0.999999992              -0.000040748               0.000625303               0.999999992              -0.000050223               0.000652548               0.999999992              -0.000059826               0.000682196               0.999999992              -0.000069152               0.000713337               0.999999992              -0.000078208               0.000745455               0.999999992              -0.000086815               0.000778261               0.999999992              -0.000094519               0.000811501               0.999999992              -0.000101188               0.000844963               0.999999992              -0.000106687               0.000878504               0.999999992              -0.000111169               0.000912100               0.999999992              -0.000115002               0.000945863               0.999999992              -0.000052158               0.000632684               0.999999992              -0.000019881               0.000614263               0.999999992              -0.000009087               0.000607432               0.999999992              -0.000008034               0.000610713               0.999999992              -0.000011794               0.000621780               0.999999992              -0.000017785               0.000638698               0.999999992              -0.000024798               0.000660124               0.999999992              -0.000032327               0.000684981               0.999999992              -0.000040189               0.000712321               0.999999992              -0.000047958               0.000741459               0.999999992              -0.000055461               0.000771737               0.999999992              -0.000062522               0.000802873               0.999999992              -0.000068656               0.000834667               0.999999992              -0.000073527               0.000866806               0.999999992              -0.000076924               0.000899124               0.999999992              -0.000078527               0.000931517               0.999999992              -0.000078418               0.000963996               0.999999992              -0.000039711               0.000656112               0.999999992              -0.000013413               0.000646874               0.999999992              -0.000003550               0.000643362               0.999999992              -0.000001622               0.000647160               0.999999992              -0.000003711               0.000657476               0.999999992              -0.000007813               0.000673039               0.999999992              -0.000012793               0.000692814               0.999999992              -0.000018326               0.000715932               0.999999992              -0.000024279               0.000741659               0.999999992              -0.000030278               0.000769347               0.999999992              -0.000036016               0.000798462               0.999999992              -0.000041332               0.000828560               0.999999992              -0.000045896               0.000859437               0.999999992              -0.000049282               0.000890909               0.999999992              -0.000050986               0.000922618               0.999999992              -0.000050507               0.000954414               0.999999992              -0.000047328               0.000986332               0.999999992              -0.000026717               0.000673044               0.999999992              -0.000008279               0.000671234               0.999999992              -0.000000717               0.000671087               0.999999992               0.000001295               0.000676008               0.999999992               0.000000363               0.000686211               0.999999992              -0.000002043               0.000701074               0.999999992              -0.000005233               0.000719809               0.999999992              -0.000008796               0.000741820               0.999999992              -0.000012722               0.000766455               0.999999992              -0.000016816               0.000793177               0.999999992              -0.000020789               0.000821521               0.999999992              -0.000024432               0.000851088               0.999999992              -0.000027450               0.000881649               0.999999992              -0.000029463               0.000913003               0.999999992              -0.000030014               0.000944886               0.999999992              -0.000028580               0.000976987               0.999999992              -0.000024288               0.001009058               0.999999992              -0.000013418               0.000683148               0.999999992              -0.000003993               0.000686202               0.999999992               0.000000162               0.000688637               0.999999992               0.000001428               0.000694657               0.999999992               0.000001148               0.000705057               0.999999992               0.000000056               0.000719653               0.999999992              -0.000001447               0.000737851               0.999999992              -0.000003184               0.000759104               0.999999992              -0.000005176               0.000783003               0.999999992              -0.000007270               0.000809123               0.999999992              -0.000009353               0.000837080               0.999999992              -0.000011244               0.000866488               0.999999992              -0.000012701               0.000897078               0.999999992              -0.000013547               0.000928675               0.999999992              -0.000013551               0.000960938               0.999999992              -0.000012396               0.000993601               0.999999992              -0.000009546               0.001026216               0.999999992              -0.000000000               0.000686442               0.999999992               0.000000000               0.000691234               0.999999992              -0.000000000               0.000694670               0.999999992               0.000000000               0.000701108               0.999999992              -0.000000000               0.000711600               0.999999992               0.000000000               0.000726087               0.999999992               0.000000000               0.000744140               0.999999992               0.000000000               0.000765179               0.999999992              -0.000000000               0.000788815               0.999999992              -0.000000000               0.000814722               0.999999992              -0.000000000               0.000842503               0.999999992              -0.000000000               0.000871896               0.999999992              -0.000000000               0.000902591               0.999999992              -0.000000000               0.000934237               0.999999992              -0.000000000               0.000966617               0.999999992              -0.000000000               0.000999441               0.999999992              -0.000000000               0.001032237               0.999999992              -0.000138607               0.000000000               0.999999992              -0.000165561               0.000000000               0.999999992              -0.000178048               0.000000000               0.999999992              -0.000185221               0.000000000               0.999999992              -0.000190697               0.000000000               0.999999992              -0.000196017               0.000000000               0.999999992              -0.000201809               0.000000000               0.999999992              -0.000208252               0.000000000               0.999999992              -0.000215575               0.000000000               0.999999992              -0.000223879               0.000000000               0.999999992              -0.000233217               0.000000000               0.999999992              -0.000243471               0.000000000               0.999999992              -0.000254632               0.000000000               0.999999992              -0.000266813               0.000000000               0.999999992              -0.000279949               0.000000000               0.999999992              -0.000293881               0.000000000               0.999999992              -0.000308332               0.000000000               0.999999992              -0.000137703              -0.000067971               0.999999992              -0.000163279              -0.000058708               0.999999992              -0.000175006              -0.000055745               0.999999992              -0.000181761              -0.000056188               0.999999992              -0.000187072              -0.000058653               0.999999992              -0.000192338              -0.000062275               0.999999992              -0.000198097              -0.000066600               0.999999992              -0.000204586              -0.000071448               0.999999992              -0.000211957              -0.000076710               0.999999992              -0.000220304              -0.000082195               0.999999992              -0.000229625              -0.000087814               0.999999992              -0.000239858              -0.000093545               0.999999992              -0.000251016              -0.000099397               0.999999992              -0.000263074              -0.000105200               0.999999992              -0.000275954              -0.000110739               0.999999992              -0.000289537              -0.000115629               0.999999992              -0.000303635              -0.000119342               0.999999992              -0.000135158              -0.000135116               0.999999992              -0.000156689              -0.000116856               0.999999992              -0.000166206              -0.000111339               0.999999992              -0.000171924              -0.000112545               0.999999992              -0.000176799              -0.000117643               0.999999992              -0.000181924              -0.000124938               0.999999992              -0.000187751              -0.000133565               0.999999992              -0.000194440              -0.000143202               0.999999992              -0.000202069              -0.000153615               0.999999992              -0.000210695              -0.000164569               0.999999992              -0.000220308              -0.000175787               0.999999992              -0.000230807              -0.000187187               0.999999992              -0.000242140              -0.000198718               0.999999992              -0.000254198              -0.000210089               0.999999992              -0.000266856              -0.000220929               0.999999992              -0.000279934              -0.000230777               0.999999992              -0.000293325              -0.000239066               0.999999992              -0.000131215              -0.000200691               0.999999992              -0.000146412              -0.000173890               0.999999992              -0.000152733              -0.000166501               0.999999992              -0.000157069              -0.000168967               0.999999992              -0.000161519              -0.000176913               0.999999992              -0.000166732              -0.000188024               0.999999992              -0.000172927              -0.000201028               0.999999992              -0.000180164              -0.000215457               0.999999992              -0.000188438              -0.000231069               0.999999992              -0.000197664              -0.000247283               0.999999992              -0.000207745              -0.000263900               0.999999992              -0.000218593              -0.000280807               0.999999992              -0.000230100              -0.000297823               0.999999992              -0.000242093              -0.000314584               0.999999992              -0.000254434              -0.000330666               0.999999992              -0.000266989              -0.000345665               0.999999992              -0.000279707              -0.000359102               0.999999992              -0.000126005              -0.000264048               0.999999992              -0.000132981              -0.000229402               0.999999992              -0.000135725              -0.000220994               0.999999992              -0.000138822              -0.000225322               0.999999992              -0.000143236              -0.000236443               0.999999992              -0.000149011              -0.000251407               0.999999992              -0.000156076              -0.000268913               0.999999992              -0.000164253              -0.000288192               0.999999992              -0.000173411              -0.000308737               0.999999992              -0.000183429              -0.000330048               0.999999992              -0.000194127              -0.000351927               0.999999992              -0.000205375              -0.000374105               0.999999992              -0.000217014              -0.000396443               0.999999992              -0.000228904              -0.000418462               0.999999992              -0.000240910              -0.000439743               0.999999992              -0.000252998              -0.000460137               0.999999992              -0.000265240              -0.000479378               0.999999992              -0.000119465              -0.000324628               0.999999992              -0.000117021              -0.000283147               0.999999992              -0.000116515              -0.000274590               0.999999992              -0.000119041              -0.000281224               0.999999992              -0.000124090              -0.000295732               0.999999992              -0.000130949              -0.000314677               0.999999992              -0.000139261              -0.000336667               0.999999992              -0.000148697              -0.000360560               0.999999992              -0.000158996              -0.000385782               0.999999992              -0.000169963              -0.000412057               0.999999992              -0.000181421              -0.000438906               0.999999992              -0.000193226              -0.000466192               0.999999992              -0.000205147              -0.000493559               0.999999992              -0.000217040              -0.000520448               0.999999992              -0.000228969              -0.000546770               0.999999992              -0.000240910              -0.000572355               0.999999992              -0.000252814              -0.000597269               0.999999992              -0.000111683              -0.000381815               0.999999992              -0.000099533              -0.000334948               0.999999992              -0.000096654              -0.000326909               0.999999992              -0.000099506              -0.000336105               0.999999992              -0.000105809              -0.000354112               0.999999992              -0.000114166              -0.000377094               0.999999992              -0.000124043              -0.000403356               0.999999992              -0.000134949              -0.000431685               0.999999992              -0.000146537              -0.000461510               0.999999992              -0.000158592              -0.000492339               0.999999992              -0.000170879              -0.000523900               0.999999992              -0.000183233              -0.000555830               0.999999992              -0.000195433              -0.000587702               0.999999992              -0.000207475              -0.000619094               0.999999992              -0.000219350              -0.000649944               0.999999992              -0.000230993              -0.000680287               0.999999992              -0.000242377              -0.000709855               0.999999992              -0.000102966              -0.000434868               0.999999992              -0.000081494              -0.000384680               0.999999992              -0.000077381              -0.000377635               0.999999992              -0.000081480              -0.000389421               0.999999992              -0.000089501              -0.000410854               0.999999992              -0.000099694              -0.000437672               0.999999992              -0.000111304              -0.000468078               0.999999992              -0.000123756              -0.000500753               0.999999992              -0.000136625              -0.000534835               0.999999992              -0.000149599              -0.000570009               0.999999992              -0.000162477              -0.000605993               0.999999992              -0.000175127              -0.000642169               0.999999992              -0.000187392              -0.000678116               0.999999992              -0.000199275              -0.000713595               0.999999992              -0.000210816              -0.000748587               0.999999992              -0.000221932              -0.000783069               0.999999992              -0.000232640              -0.000816678               0.999999992              -0.000093739              -0.000482910               0.999999992              -0.000063606              -0.000432248               0.999999992              -0.000059827              -0.000426345               0.999999992              -0.000065772              -0.000440518               0.999999992              -0.000075885              -0.000465105               0.999999992              -0.000088017              -0.000495658               0.999999992              -0.000101377              -0.000530105               0.999999992              -0.000115127              -0.000566971               0.999999992              -0.000128847              -0.000605257               0.999999992              -0.000142404              -0.000644674               0.999999992              -0.000155546              -0.000684652               0.999999992              -0.000168129              -0.000724637               0.999999992              -0.000180152              -0.000764274               0.999999992              -0.000191668              -0.000803479               0.999999992              -0.000202799              -0.000842223               0.999999992              -0.000213662              -0.000880344               0.999999992              -0.000224320              -0.000917691               0.999999992              -0.000084784              -0.000527646               0.999999992              -0.000049816              -0.000482578               0.999999992              -0.000043478              -0.000472962               0.999999992              -0.000047948              -0.000482249               0.999999992              -0.000057010              -0.000502131               0.999999992              -0.000068067              -0.000528449               0.999999992              -0.000080135              -0.000559142               0.999999992              -0.000092761              -0.000592591               0.999999992              -0.000105143              -0.000627822               0.999999992              -0.000117368              -0.000664209               0.999999992              -0.000129202              -0.000701427               0.999999992              -0.000140519              -0.000739008               0.999999992              -0.000151186              -0.000776550               0.999999992              -0.000161217              -0.000814006               0.999999992              -0.000170807              -0.000851254               0.999999992              -0.000180329              -0.000888189               0.999999992              -0.000189925              -0.000924637               0.999999992              -0.000074803              -0.000567883               0.999999992              -0.000037982              -0.000530532               0.999999992              -0.000029238              -0.000520031               0.999999992              -0.000031785              -0.000525691               0.999999992              -0.000039311              -0.000541561               0.999999992              -0.000048915              -0.000564021               0.999999992              -0.000059596              -0.000591052               0.999999992              -0.000070809              -0.000621275               0.999999992              -0.000081894              -0.000653579               0.999999992              -0.000092654              -0.000687150               0.999999992              -0.000103137              -0.000721683               0.999999992              -0.000113143              -0.000756720               0.999999992              -0.000122387              -0.000792011               0.999999992              -0.000130818              -0.000827306               0.999999992              -0.000138540              -0.000862637               0.999999992              -0.000145850              -0.000897937               0.999999992              -0.000153167              -0.000933257               0.999999992              -0.000063915              -0.000603074               0.999999992              -0.000028004              -0.000574942               0.999999992              -0.000017671              -0.000565571               0.999999992              -0.000018201              -0.000569325               0.999999992              -0.000023854              -0.000582202               0.999999992              -0.000031784              -0.000601422               0.999999992              -0.000040748              -0.000625303               0.999999992              -0.000050223              -0.000652548               0.999999992              -0.000059826              -0.000682196               0.999999992              -0.000069152              -0.000713337               0.999999992              -0.000078208              -0.000745455               0.999999992              -0.000086815              -0.000778261               0.999999992              -0.000094519              -0.000811501               0.999999992              -0.000101188              -0.000844963               0.999999992              -0.000106687              -0.000878504               0.999999992              -0.000111169              -0.000912100               0.999999992              -0.000115002              -0.000945863               0.999999992              -0.000052158              -0.000632684               0.999999992              -0.000019881              -0.000614263               0.999999992              -0.000009087              -0.000607432               0.999999992              -0.000008034              -0.000610713               0.999999992              -0.000011794              -0.000621780               0.999999992              -0.000017785              -0.000638698               0.999999992              -0.000024798              -0.000660124               0.999999992              -0.000032327              -0.000684981               0.999999992              -0.000040189              -0.000712321               0.999999992              -0.000047958              -0.000741459               0.999999992              -0.000055461              -0.000771737               0.999999992              -0.000062522              -0.000802873               0.999999992              -0.000068656              -0.000834667               0.999999992              -0.000073527              -0.000866806               0.999999992              -0.000076924              -0.000899124               0.999999992              -0.000078527              -0.000931517               0.999999992              -0.000078418              -0.000963996               0.999999992              -0.000039711              -0.000656112               0.999999992              -0.000013413              -0.000646874               0.999999992              -0.000003550              -0.000643362               0.999999992              -0.000001622              -0.000647160               0.999999992              -0.000003711              -0.000657476               0.999999992              -0.000007813              -0.000673039               0.999999992              -0.000012793              -0.000692814               0.999999992              -0.000018326              -0.000715932               0.999999992              -0.000024279              -0.000741659               0.999999992              -0.000030278              -0.000769347               0.999999992              -0.000036016              -0.000798462               0.999999992              -0.000041332              -0.000828560               0.999999992              -0.000045896              -0.000859437               0.999999992              -0.000049282              -0.000890909               0.999999992              -0.000050986              -0.000922618               0.999999992              -0.000050507              -0.000954414               0.999999992              -0.000047328              -0.000986332               0.999999992              -0.000026717              -0.000673044               0.999999992              -0.000008279              -0.000671234               0.999999992              -0.000000717              -0.000671087               0.999999992               0.000001295              -0.000676008               0.999999992               0.000000363              -0.000686211               0.999999992              -0.000002043              -0.000701074               0.999999992              -0.000005233              -0.000719809               0.999999992              -0.000008796              -0.000741820               0.999999992              -0.000012722              -0.000766455               0.999999992              -0.000016816              -0.000793177               0.999999992              -0.000020789              -0.000821521               0.999999992              -0.000024432              -0.000851088               0.999999992              -0.000027450              -0.000881649               0.999999992              -0.000029463              -0.000913003               0.999999992              -0.000030014              -0.000944886               0.999999992              -0.000028580              -0.000976987               0.999999992              -0.000024288              -0.001009058               0.999999992              -0.000013418              -0.000683148               0.999999992              -0.000003993              -0.000686202               0.999999992               0.000000162              -0.000688637               0.999999992               0.000001428              -0.000694657               0.999999992               0.000001148              -0.000705057               0.999999992               0.000000056              -0.000719653               0.999999992              -0.000001447              -0.000737851               0.999999992              -0.000003184              -0.000759104               0.999999992              -0.000005176              -0.000783003               0.999999992              -0.000007270              -0.000809123               0.999999992              -0.000009353              -0.000837080               0.999999992              -0.000011244              -0.000866488               0.999999992              -0.000012701              -0.000897078               0.999999992              -0.000013547              -0.000928675               0.999999992              -0.000013551              -0.000960938               0.999999992              -0.000012396              -0.000993601               0.999999992              -0.000009546              -0.001026216               0.999999992              -0.000000000              -0.000686442               0.999999992               0.000000000              -0.000691234               0.999999992              -0.000000000              -0.000694670               0.999999992              -0.000000000              -0.000701108               0.999999992               0.000000000              -0.000711600               0.999999992              -0.000000000              -0.000726087               0.999999992              -0.000000000              -0.000744140               0.999999992               0.000000000              -0.000765179               0.999999992              -0.000000000              -0.000788815               0.999999992              -0.000000000              -0.000814722               0.999999992               0.000000000              -0.000842503               0.999999992              -0.000000000              -0.000871896               0.999999992               0.000000000              -0.000902591               0.999999992               0.000000000              -0.000934237               0.999999992               0.000000000              -0.000966617               0.999999992              -0.000000000              -0.000999441               0.999999992               0.000000000              -0.001032237               0.999999992               0.000138607              -0.000000000               0.999999992               0.000165561               0.000000000               0.999999992               0.000178048               0.000000000               0.999999992               0.000185221               0.000000000               0.999999992               0.000190697              -0.000000000               0.999999992               0.000196017               0.000000000               0.999999992               0.000201809               0.000000000               0.999999992               0.000208252              -0.000000000               0.999999992               0.000215575               0.000000000               0.999999992               0.000223879               0.000000000               0.999999992               0.000233217               0.000000000               0.999999992               0.000243471               0.000000000               0.999999992               0.000254632               0.000000000               0.999999992               0.000266813               0.000000000               0.999999992               0.000279949               0.000000000               0.999999992               0.000293881               0.000000000               0.999999992               0.000308332               0.000000000               0.999999992               0.000137703              -0.000067971               0.999999992               0.000163279              -0.000058708               0.999999992               0.000175006              -0.000055745               0.999999992               0.000181761              -0.000056188               0.999999992               0.000187072              -0.000058653               0.999999992               0.000192338              -0.000062275               0.999999992               0.000198097              -0.000066600               0.999999992               0.000204586              -0.000071448               0.999999992               0.000211957              -0.000076710               0.999999992               0.000220304              -0.000082195               0.999999992               0.000229625              -0.000087814               0.999999992               0.000239858              -0.000093545               0.999999992               0.000251016              -0.000099397               0.999999992               0.000263074              -0.000105200               0.999999992               0.000275954              -0.000110739               0.999999992               0.000289537              -0.000115629               0.999999992               0.000303635              -0.000119342               0.999999992               0.000135158              -0.000135116               0.999999992               0.000156689              -0.000116856               0.999999992               0.000166206              -0.000111339               0.999999992               0.000171924              -0.000112545               0.999999992               0.000176799              -0.000117643               0.999999992               0.000181924              -0.000124938               0.999999992               0.000187751              -0.000133565               0.999999992               0.000194440              -0.000143202               0.999999992               0.000202069              -0.000153615               0.999999992               0.000210695              -0.000164569               0.999999992               0.000220308              -0.000175787               0.999999992               0.000230807              -0.000187187               0.999999992               0.000242140              -0.000198718               0.999999992               0.000254198              -0.000210089               0.999999992               0.000266856              -0.000220929               0.999999992               0.000279934              -0.000230777               0.999999992               0.000293325              -0.000239066               0.999999992               0.000131215              -0.000200691               0.999999992               0.000146412              -0.000173890               0.999999992               0.000152733              -0.000166501               0.999999992               0.000157069              -0.000168967               0.999999992               0.000161519              -0.000176913               0.999999992               0.000166732              -0.000188024               0.999999992               0.000172927              -0.000201028               0.999999992               0.000180164              -0.000215457               0.999999992               0.000188438              -0.000231069               0.999999992               0.000197664              -0.000247283               0.999999992               0.000207745              -0.000263900               0.999999992               0.000218593              -0.000280807               0.999999992               0.000230100              -0.000297823               0.999999992               0.000242093              -0.000314584               0.999999992               0.000254434              -0.000330666               0.999999992               0.000266989              -0.000345665               0.999999992               0.000279707              -0.000359102               0.999999992               0.000126005              -0.000264048               0.999999992               0.000132981              -0.000229402               0.999999992               0.000135725              -0.000220994               0.999999992               0.000138822              -0.000225322               0.999999992               0.000143236              -0.000236443               0.999999992               0.000149011              -0.000251407               0.999999992               0.000156076              -0.000268913               0.999999992               0.000164253              -0.000288192               0.999999992               0.000173411              -0.000308737               0.999999992               0.000183429              -0.000330048               0.999999992               0.000194127              -0.000351927               0.999999992               0.000205375              -0.000374105               0.999999992               0.000217014              -0.000396443               0.999999992               0.000228904              -0.000418462               0.999999992               0.000240910              -0.000439743               0.999999992               0.000252998              -0.000460137               0.999999992               0.000265240              -0.000479378               0.999999992               0.000119465              -0.000324628               0.999999992               0.000117021              -0.000283147               0.999999992               0.000116515              -0.000274590               0.999999992               0.000119041              -0.000281224               0.999999992               0.000124090              -0.000295732               0.999999992               0.000130949              -0.000314677               0.999999992               0.000139261              -0.000336667               0.999999992               0.000148697              -0.000360560               0.999999992               0.000158996              -0.000385782               0.999999992               0.000169963              -0.000412057               0.999999992               0.000181421              -0.000438906               0.999999992               0.000193226              -0.000466192               0.999999992               0.000205147              -0.000493559               0.999999992               0.000217040              -0.000520448               0.999999992               0.000228969              -0.000546770               0.999999992               0.000240910              -0.000572355               0.999999992               0.000252814              -0.000597269               0.999999992               0.000111683              -0.000381815               0.999999992               0.000099533              -0.000334948               0.999999992               0.000096654              -0.000326909               0.999999992               0.000099506              -0.000336105               0.999999992               0.000105809              -0.000354112               0.999999992               0.000114166              -0.000377094               0.999999992               0.000124043              -0.000403356               0.999999992               0.000134949              -0.000431685               0.999999992               0.000146537              -0.000461510               0.999999992               0.000158592              -0.000492339               0.999999992               0.000170879              -0.000523900               0.999999992               0.000183233              -0.000555830               0.999999992               0.000195433              -0.000587702               0.999999992               0.000207475              -0.000619094               0.999999992               0.000219350              -0.000649944               0.999999992               0.000230993              -0.000680287               0.999999992               0.000242377              -0.000709855               0.999999992               0.000102966              -0.000434868               0.999999992               0.000081494              -0.000384680               0.999999992               0.000077381              -0.000377635               0.999999992               0.000081480              -0.000389421               0.999999992               0.000089501              -0.000410854               0.999999992               0.000099694              -0.000437672               0.999999992               0.000111304              -0.000468078               0.999999992               0.000123756              -0.000500753               0.999999992               0.000136625              -0.000534835               0.999999992               0.000149599              -0.000570009               0.999999992               0.000162477              -0.000605993               0.999999992               0.000175127              -0.000642169               0.999999992               0.000187392              -0.000678116               0.999999992               0.000199275              -0.000713595               0.999999992               0.000210816              -0.000748587               0.999999992               0.000221932              -0.000783069               0.999999992               0.000232640              -0.000816678               0.999999992               0.000093739              -0.000482910               0.999999992               0.000063606              -0.000432248               0.999999992               0.000059827              -0.000426345               0.999999992               0.000065772              -0.000440518               0.999999992               0.000075885              -0.000465105               0.999999992               0.000088017              -0.000495658               0.999999992               0.000101377              -0.000530105               0.999999992               0.000115127              -0.000566971               0.999999992               0.000128847              -0.000605257               0.999999992               0.000142404              -0.000644674               0.999999992               0.000155546              -0.000684652               0.999999992               0.000168129              -0.000724637               0.999999992               0.000180152              -0.000764274               0.999999992               0.000191668              -0.000803479               0.999999992               0.000202799              -0.000842223               0.999999992               0.000213662              -0.000880344               0.999999992               0.000224320              -0.000917691               0.999999992               0.000084784              -0.000527646               0.999999992               0.000049816              -0.000482578               0.999999992               0.000043478              -0.000472962               0.999999992               0.000047948              -0.000482249               0.999999992               0.000057010              -0.000502131               0.999999992               0.000068067              -0.000528449               0.999999992               0.000080135              -0.000559142               0.999999992               0.000092761              -0.000592591               0.999999992               0.000105143              -0.000627822               0.999999992               0.000117368              -0.000664209               0.999999992               0.000129202              -0.000701427               0.999999992               0.000140519              -0.000739008               0.999999992               0.000151186              -0.000776550               0.999999992               0.000161217              -0.000814006               0.999999992               0.000170807              -0.000851254               0.999999992               0.000180329              -0.000888189               0.999999992               0.000189925              -0.000924637               0.999999992               0.000074803              -0.000567883               0.999999992               0.000037982              -0.000530532               0.999999992               0.000029238              -0.000520031               0.999999992               0.000031785              -0.000525691               0.999999992               0.000039311              -0.000541561               0.999999992               0.000048915              -0.000564021               0.999999992               0.000059596              -0.000591052               0.999999992               0.000070809              -0.000621275               0.999999992               0.000081894              -0.000653579               0.999999992               0.000092654              -0.000687150               0.999999992               0.000103137              -0.000721683               0.999999992               0.000113143              -0.000756720               0.999999992               0.000122387              -0.000792011               0.999999992               0.000130818              -0.000827306               0.999999992               0.000138540              -0.000862637               0.999999992               0.000145850              -0.000897937               0.999999992               0.000153167              -0.000933257               0.999999992               0.000063915              -0.000603074               0.999999992               0.000028004              -0.000574942               0.999999992               0.000017671              -0.000565571               0.999999992               0.000018201              -0.000569325               0.999999992               0.000023854              -0.000582202               0.999999992               0.000031784              -0.000601422               0.999999992               0.000040748              -0.000625303               0.999999992               0.000050223              -0.000652548               0.999999992               0.000059826              -0.000682196               0.999999992               0.000069152              -0.000713337               0.999999992               0.000078208              -0.000745455               0.999999992               0.000086815              -0.000778261               0.999999992               0.000094519              -0.000811501               0.999999992               0.000101188              -0.000844963               0.999999992               0.000106687              -0.000878504               0.999999992               0.000111169              -0.000912100               0.999999992               0.000115002              -0.000945863               0.999999992               0.000052158              -0.000632684               0.999999992               0.000019881              -0.000614263               0.999999992               0.000009087              -0.000607432               0.999999992               0.000008034              -0.000610713               0.999999992               0.000011794              -0.000621780               0.999999992               0.000017785              -0.000638698               0.999999992               0.000024798              -0.000660124               0.999999992               0.000032327              -0.000684981               0.999999992               0.000040189              -0.000712321               0.999999992               0.000047958              -0.000741459               0.999999992               0.000055461              -0.000771737               0.999999992               0.000062522              -0.000802873               0.999999992               0.000068656              -0.000834667               0.999999992               0.000073527              -0.000866806               0.999999992               0.000076924              -0.000899124               0.999999992               0.000078527              -0.000931517               0.999999992               0.000078418              -0.000963996               0.999999992               0.000039711              -0.000656112               0.999999992               0.000013413              -0.000646874               0.999999992               0.000003550              -0.000643362               0.999999992               0.000001622              -0.000647160               0.999999992               0.000003711              -0.000657476               0.999999992               0.000007813              -0.000673039               0.999999992               0.000012793              -0.000692814               0.999999992               0.000018326              -0.000715932               0.999999992               0.000024279              -0.000741659               0.999999992               0.000030278              -0.000769347               0.999999992               0.000036016              -0.000798462               0.999999992               0.000041332              -0.000828560               0.999999992               0.000045896              -0.000859437               0.999999992               0.000049282              -0.000890909               0.999999992               0.000050986              -0.000922618               0.999999992               0.000050507              -0.000954414               0.999999992               0.000047328              -0.000986332               0.999999992               0.000026717              -0.000673044               0.999999992               0.000008279              -0.000671234               0.999999992               0.000000717              -0.000671087               0.999999992              -0.000001295              -0.000676008               0.999999992              -0.000000363              -0.000686211               0.999999992               0.000002043              -0.000701074               0.999999992               0.000005233              -0.000719809               0.999999992               0.000008796              -0.000741820               0.999999992               0.000012722              -0.000766455               0.999999992               0.000016816              -0.000793177               0.999999992               0.000020789              -0.000821521               0.999999992               0.000024432              -0.000851088               0.999999992               0.000027450              -0.000881649               0.999999992               0.000029463              -0.000913003               0.999999992               0.000030014              -0.000944886               0.999999992               0.000028580              -0.000976987               0.999999992               0.000024288              -0.001009058               0.999999992               0.000013418              -0.000683148               0.999999992               0.000003993              -0.000686202               0.999999992              -0.000000162              -0.000688637               0.999999992              -0.000001428              -0.000694657               0.999999992              -0.000001148              -0.000705057               0.999999992              -0.000000056              -0.000719653               0.999999992               0.000001447              -0.000737851               0.999999992               0.000003184              -0.000759104               0.999999992               0.000005176              -0.000783003               0.999999992               0.000007270              -0.000809123               0.999999992               0.000009353              -0.000837080               0.999999992               0.000011244              -0.000866488               0.999999992               0.000012701              -0.000897078               0.999999992               0.000013547              -0.000928675               0.999999992               0.000013551              -0.000960938               0.999999992               0.000012396              -0.000993601               0.999999992               0.000009546              -0.001026216               0.999999992              -0.000000000              -0.000686442               0.999999992               0.000000000              -0.000691234               0.999999992              -0.000000000              -0.000694670               0.999999992              -0.000000000              -0.000701108               0.999999992               0.000000000              -0.000711600               0.999999992              -0.000000000              -0.000726087               0.999999992              -0.000000000              -0.000744140               0.999999992               0.000000000              -0.000765179               0.999999992              -0.000000000              -0.000788815               0.999999992              -0.000000000              -0.000814722               0.999999992               0.000000000              -0.000842503               0.999999992              -0.000000000              -0.000871896               0.999999992               0.000000000              -0.000902591               0.999999992               0.000000000              -0.000934237               0.999999992               0.000000000              -0.000966617               0.999999992              -0.000000000              -0.000999441               0.999999992               0.000000000              -0.001032237               0.999999992               0.000138607              -0.000000000               0.999999992               0.000165561               0.000000000               0.999999992               0.000178048               0.000000000               0.999999992               0.000185221               0.000000000               0.999999992               0.000190697              -0.000000000               0.999999992               0.000196017               0.000000000               0.999999992               0.000201809               0.000000000               0.999999992               0.000208252              -0.000000000               0.999999992               0.000215575               0.000000000               0.999999992               0.000223879               0.000000000               0.999999992               0.000233217               0.000000000               0.999999992               0.000243471               0.000000000               0.999999992               0.000254632               0.000000000               0.999999992               0.000266813               0.000000000               0.999999992               0.000279949               0.000000000               0.999999992               0.000293881               0.000000000               0.999999992               0.000308332               0.000000000               0.999999992               0.000137703               0.000067971               0.999999992               0.000163279               0.000058708               0.999999992               0.000175006               0.000055745               0.999999992               0.000181761               0.000056188               0.999999992               0.000187072               0.000058653               0.999999992               0.000192338               0.000062275               0.999999992               0.000198097               0.000066600               0.999999992               0.000204586               0.000071448               0.999999992               0.000211957               0.000076710               0.999999992               0.000220304               0.000082195               0.999999992               0.000229625               0.000087814               0.999999992               0.000239858               0.000093545               0.999999992               0.000251016               0.000099397               0.999999992               0.000263074               0.000105200               0.999999992               0.000275954               0.000110739               0.999999992               0.000289537               0.000115629               0.999999992               0.000303635               0.000119342               0.999999992               0.000135158               0.000135116               0.999999992               0.000156689               0.000116856               0.999999992               0.000166206               0.000111339               0.999999992               0.000171924               0.000112545               0.999999992               0.000176799               0.000117643               0.999999992               0.000181924               0.000124938               0.999999992               0.000187751               0.000133565               0.999999992               0.000194440               0.000143202               0.999999992               0.000202069               0.000153615               0.999999992               0.000210695               0.000164569               0.999999992               0.000220308               0.000175787               0.999999992               0.000230807               0.000187187               0.999999992               0.000242140               0.000198718               0.999999992               0.000254198               0.000210089               0.999999992               0.000266856               0.000220929               0.999999992               0.000279934               0.000230777               0.999999992               0.000293325               0.000239066               0.999999992               0.000131215               0.000200691               0.999999992               0.000146412               0.000173890               0.999999992               0.000152733               0.000166501               0.999999992               0.000157069               0.000168967               0.999999992               0.000161519               0.000176913               0.999999992               0.000166732               0.000188024               0.999999992               0.000172927               0.000201028               0.999999992               0.000180164               0.000215457               0.999999992               0.000188438               0.000231069               0.999999992               0.000197664               0.000247283               0.999999992               0.000207745               0.000263900               0.999999992               0.000218593               0.000280807               0.999999992               0.000230100               0.000297823               0.999999992               0.000242093               0.000314584               0.999999992               0.000254434               0.000330666               0.999999992               0.000266989               0.000345665               0.999999992               0.000279707               0.000359102               0.999999992               0.000126005               0.000264048               0.999999992               0.000132981               0.000229402               0.999999992               0.000135725               0.000220994               0.999999992               0.000138822               0.000225322               0.999999992               0.000143236               0.000236443               0.999999992               0.000149011               0.000251407               0.999999992               0.000156076               0.000268913               0.999999992               0.000164253               0.000288192               0.999999992               0.000173411               0.000308737               0.999999992               0.000183429               0.000330048               0.999999992               0.000194127               0.000351927               0.999999992               0.000205375               0.000374105               0.999999992               0.000217014               0.000396443               0.999999992               0.000228904               0.000418462               0.999999992               0.000240910               0.000439743               0.999999992               0.000252998               0.000460137               0.999999992               0.000265240               0.000479378               0.999999992               0.000119465               0.000324628               0.999999992               0.000117021               0.000283147               0.999999992               0.000116515               0.000274590               0.999999992               0.000119041               0.000281224               0.999999992               0.000124090               0.000295732               0.999999992               0.000130949               0.000314677               0.999999992               0.000139261               0.000336667               0.999999992               0.000148697               0.000360560               0.999999992               0.000158996               0.000385782               0.999999992               0.000169963               0.000412057               0.999999992               0.000181421               0.000438906               0.999999992               0.000193226               0.000466192               0.999999992               0.000205147               0.000493559               0.999999992               0.000217040               0.000520448               0.999999992               0.000228969               0.000546770               0.999999992               0.000240910               0.000572355               0.999999992               0.000252814               0.000597269               0.999999992               0.000111683               0.000381815               0.999999992               0.000099533               0.000334948               0.999999992               0.000096654               0.000326909               0.999999992               0.000099506               0.000336105               0.999999992               0.000105809               0.000354112               0.999999992               0.000114166               0.000377094               0.999999992               0.000124043               0.000403356               0.999999992               0.000134949               0.000431685               0.999999992               0.000146537               0.000461510               0.999999992               0.000158592               0.000492339               0.999999992               0.000170879               0.000523900               0.999999992               0.000183233               0.000555830               0.999999992               0.000195433               0.000587702               0.999999992               0.000207475               0.000619094               0.999999992               0.000219350               0.000649944               0.999999992               0.000230993               0.000680287               0.999999992               0.000242377               0.000709855               0.999999992               0.000102966               0.000434868               0.999999992               0.000081494               0.000384680               0.999999992               0.000077381               0.000377635               0.999999992               0.000081480               0.000389421               0.999999992               0.000089501               0.000410854               0.999999992               0.000099694               0.000437672               0.999999992               0.000111304               0.000468078               0.999999992               0.000123756               0.000500753               0.999999992               0.000136625               0.000534835               0.999999992               0.000149599               0.000570009               0.999999992               0.000162477               0.000605993               0.999999992               0.000175127               0.000642169               0.999999992               0.000187392               0.000678116               0.999999992               0.000199275               0.000713595               0.999999992               0.000210816               0.000748587               0.999999992               0.000221932               0.000783069               0.999999992               0.000232640               0.000816678               0.999999992               0.000093739               0.000482910               0.999999992               0.000063606               0.000432248               0.999999992               0.000059827               0.000426345               0.999999992               0.000065772               0.000440518               0.999999992               0.000075885               0.000465105               0.999999992               0.000088017               0.000495658               0.999999992               0.000101377               0.000530105               0.999999992               0.000115127               0.000566971               0.999999992               0.000128847               0.000605257               0.999999992               0.000142404               0.000644674               0.999999992               0.000155546               0.000684652               0.999999992               0.000168129               0.000724637               0.999999992               0.000180152               0.000764274               0.999999992               0.000191668               0.000803479               0.999999992               0.000202799               0.000842223               0.999999992               0.000213662               0.000880344               0.999999992               0.000224320               0.000917691               0.999999992               0.000084784               0.000527646               0.999999992               0.000049816               0.000482578               0.999999992               0.000043478               0.000472962               0.999999992               0.000047948               0.000482249               0.999999992               0.000057010               0.000502131               0.999999992               0.000068067               0.000528449               0.999999992               0.000080135               0.000559142               0.999999992               0.000092761               0.000592591               0.999999992               0.000105143               0.000627822               0.999999992               0.000117368               0.000664209               0.999999992               0.000129202               0.000701427               0.999999992               0.000140519               0.000739008               0.999999992               0.000151186               0.000776550               0.999999992               0.000161217               0.000814006               0.999999992               0.000170807               0.000851254               0.999999992               0.000180329               0.000888189               0.999999992               0.000189925               0.000924637               0.999999992               0.000074803               0.000567883               0.999999992               0.000037982               0.000530532               0.999999992               0.000029238               0.000520031               0.999999992               0.000031785               0.000525691               0.999999992               0.000039311               0.000541561               0.999999992               0.000048915               0.000564021               0.999999992               0.000059596               0.000591052               0.999999992               0.000070809               0.000621275               0.999999992               0.000081894               0.000653579               0.999999992               0.000092654               0.000687150               0.999999992               0.000103137               0.000721683               0.999999992               0.000113143               0.000756720               0.999999992               0.000122387               0.000792011               0.999999992               0.000130818               0.000827306               0.999999992               0.000138540               0.000862637               0.999999992               0.000145850               0.000897937               0.999999992               0.000153167               0.000933257               0.999999992               0.000063915               0.000603074               0.999999992               0.000028004               0.000574942               0.999999992               0.000017671               0.000565571               0.999999992               0.000018201               0.000569325               0.999999992               0.000023854               0.000582202               0.999999992               0.000031784               0.000601422               0.999999992               0.000040748               0.000625303               0.999999992               0.000050223               0.000652548               0.999999992               0.000059826               0.000682196               0.999999992               0.000069152               0.000713337               0.999999992               0.000078208               0.000745455               0.999999992               0.000086815               0.000778261               0.999999992               0.000094519               0.000811501               0.999999992               0.000101188               0.000844963               0.999999992               0.000106687               0.000878504               0.999999992               0.000111169               0.000912100               0.999999992               0.000115002               0.000945863               0.999999992               0.000052158               0.000632684               0.999999992               0.000019881               0.000614263               0.999999992               0.000009087               0.000607432               0.999999992               0.000008034               0.000610713               0.999999992               0.000011794               0.000621780               0.999999992               0.000017785               0.000638698               0.999999992               0.000024798               0.000660124               0.999999992               0.000032327               0.000684981               0.999999992               0.000040189               0.000712321               0.999999992               0.000047958               0.000741459               0.999999992               0.000055461               0.000771737               0.999999992               0.000062522               0.000802873               0.999999992               0.000068656               0.000834667               0.999999992               0.000073527               0.000866806               0.999999992               0.000076924               0.000899124               0.999999992               0.000078527               0.000931517               0.999999992               0.000078418               0.000963996               0.999999992               0.000039711               0.000656112               0.999999992               0.000013413               0.000646874               0.999999992               0.000003550               0.000643362               0.999999992               0.000001622               0.000647160               0.999999992               0.000003711               0.000657476               0.999999992               0.000007813               0.000673039               0.999999992               0.000012793               0.000692814               0.999999992               0.000018326               0.000715932               0.999999992               0.000024279               0.000741659               0.999999992               0.000030278               0.000769347               0.999999992               0.000036016               0.000798462               0.999999992               0.000041332               0.000828560               0.999999992               0.000045896               0.000859437               0.999999992               0.000049282               0.000890909               0.999999992               0.000050986               0.000922618               0.999999992               0.000050507               0.000954414               0.999999992               0.000047328               0.000986332               0.999999992               0.000026717               0.000673044               0.999999992               0.000008279               0.000671234               0.999999992               0.000000717               0.000671087               0.999999992              -0.000001295               0.000676008               0.999999992              -0.000000363               0.000686211               0.999999992               0.000002043               0.000701074               0.999999992               0.000005233               0.000719809               0.999999992               0.000008796               0.000741820               0.999999992               0.000012722               0.000766455               0.999999992               0.000016816               0.000793177               0.999999992               0.000020789               0.000821521               0.999999992               0.000024432               0.000851088               0.999999992               0.000027450               0.000881649               0.999999992               0.000029463               0.000913003               0.999999992               0.000030014               0.000944886               0.999999992               0.000028580               0.000976987               0.999999992               0.000024288               0.001009058               0.999999992               0.000013418               0.000683148               0.999999992               0.000003993               0.000686202               0.999999992              -0.000000162               0.000688637               0.999999992              -0.000001428               0.000694657               0.999999992              -0.000001148               0.000705057               0.999999992              -0.000000056               0.000719653               0.999999992               0.000001447               0.000737851               0.999999992               0.000003184               0.000759104               0.999999992               0.000005176               0.000783003               0.999999992               0.000007270               0.000809123               0.999999992               0.000009353               0.000837080               0.999999992               0.000011244               0.000866488               0.999999992               0.000012701               0.000897078               0.999999992               0.000013547               0.000928675               0.999999992               0.000013551               0.000960938               0.999999992               0.000012396               0.000993601               0.999999992               0.000009546               0.001026216               0.999999992              -0.000000000               0.000686442               0.999999992               0.000000000               0.000691234               0.999999992              -0.000000000               0.000694670               0.999999992               0.000000000               0.000701108               0.999999992              -0.000000000               0.000711600               0.999999992               0.000000000               0.000726087               0.999999992               0.000000000               0.000744140               0.999999992               0.000000000               0.000765179               0.999999992              -0.000000000               0.000788815               0.999999992              -0.000000000               0.000814722               0.999999992              -0.000000000               0.000842503               0.999999992              -0.000000000               0.000871896               0.999999992              -0.000000000               0.000902591               0.999999992              -0.000000000               0.000934237               0.999999992              -0.000000000               0.000966617               0.999999992              -0.000000000               0.000999441               0.999999992              -0.000000000               0.001032237               0.999999992 </DataArray>
<DataArray type="Float64"                                    Name="stress"                                                      NumberOfComponents="10" format="ascii">
              0.001128009               0.012635638              -0.000000000              -0.001156449               0.004597320               0.003440872               0.000000000               0.000000000               0.000000000               0.000000000               0.001210110               0.010258826              -0.000000000              -0.000828560               0.003695761               0.002867201               0.000000000               0.000000000               0.000000000               0.000000000               0.001665379               0.008356920               0.000000000              -0.000420097               0.002925645               0.002505548               0.000000000               0.000000000               0.000000000               0.000000000               0.001702519               0.007317912               0.000000000              -0.000276294               0.002531377               0.002255084               0.000000000               0.000000000               0.000000000               0.000000000               0.001596409               0.006706646               0.000000000              -0.000239677               0.002315419               0.002075742               0.000000000               0.000000000               0.000000000               0.000000000               0.001446716               0.006319763               0.000000000              -0.000247451               0.002189050               0.001941599               0.000000000               0.000000000               0.000000000               0.000000000               0.001294299               0.006060777               0.000000000              -0.000272234               0.002110984               0.001838749               0.000000000               0.000000000               0.000000000               0.000000000               0.001144955               0.005880881               0.000000000              -0.000305751               0.002062191               0.001756440               0.000000000               0.000000000               0.000000000               0.000000000               0.000994392               0.005750050              -0.000000000              -0.000345858               0.002031950               0.001686092               0.000000000               0.000000000               0.000000000               0.000000000               0.000845392               0.005647528              -0.000000000              -0.000388918               0.002012130               0.001623212               0.000000000               0.000000000               0.000000000               0.000000000               0.000706660               0.005564617               0.000000000              -0.000430578               0.001998380               0.001567801               0.000000000               0.000000000               0.000000000               0.000000000               0.000578467               0.005496655              -0.000000000              -0.000470156               0.001988918               0.001518763               0.000000000               0.000000000               0.000000000               0.000000000               0.000448759               0.005436137              -0.000000000              -0.000511231               0.001982438               0.001471207               0.000000000               0.000000000               0.000000000               0.000000000               0.000318773               0.005374694              -0.000000000              -0.000552296               0.001975645               0.001423350               0.000000000               0.000000000               0.000000000               0.000000000               0.000198148               0.005304522              -0.000000000              -0.000588758               0.001964409               0.001375651               0.000000000               0.000000000               0.000000000               0.000000000               0.000092913               0.005212412               0.000000000              -0.000616707               0.001943022               0.001326315               0.000000000               0.000000000               0.000000000               0.000000000               0.000037748               0.005136209              -0.000000000              -0.000627869               0.001921342               0.001293473               0.000000000               0.000000000               0.000000000               0.000000000               0.001180362               0.012397857              -0.000914213              -0.001107094               0.004501609               0.003394515               0.000000000               0.000000000               0.000000000               0.000000000               0.001209237               0.010100554              -0.000540488              -0.000809103               0.003636519               0.002827415               0.000000000               0.000000000               0.000000000               0.000000000               0.001607540               0.008279639              -0.000161318              -0.000432126               0.002903894               0.002471768               0.000000000               0.000000000               0.000000000               0.000000000               0.001622462               0.007281088               0.000008408              -0.000301712               0.002527576               0.002225864               0.000000000               0.000000000               0.000000000               0.000000000               0.001510248               0.006688079               0.000084546              -0.000269666               0.002319226               0.002049560               0.000000000               0.000000000               0.000000000               0.000000000               0.001363015               0.006308241               0.000116392              -0.000277399               0.002195192               0.001917793               0.000000000               0.000000000               0.000000000               0.000000000               0.001213436               0.006050206               0.000129182              -0.000301236               0.002117127               0.001815891               0.000000000               0.000000000               0.000000000               0.000000000               0.001067695               0.005868903               0.000133550              -0.000333226               0.002067357               0.001734131               0.000000000               0.000000000               0.000000000               0.000000000               0.000923260               0.005736443               0.000132102              -0.000370832               0.002035739               0.001664907               0.000000000               0.000000000               0.000000000               0.000000000               0.000782507               0.005634899               0.000126188              -0.000410921               0.002015255               0.001604333               0.000000000               0.000000000               0.000000000               0.000000000               0.000651507               0.005553040               0.000119454              -0.000449814               0.002000933               0.001551119               0.000000000               0.000000000               0.000000000               0.000000000               0.000528237               0.005483972               0.000113983              -0.000487406               0.001990441               0.001503035               0.000000000               0.000000000               0.000000000               0.000000000               0.000406974               0.005421334               0.000107179              -0.000525050               0.001982110               0.001457060               0.000000000               0.000000000               0.000000000               0.000000000               0.000289925               0.005358207               0.000096164              -0.000561053               0.001973069               0.001412016               0.000000000               0.000000000               0.000000000               0.000000000               0.000181674               0.005287698               0.000077665              -0.000592833               0.001960159               0.001367326               0.000000000               0.000000000               0.000000000               0.000000000               0.000086023               0.005202403               0.000046124              -0.000618040               0.001940130               0.001322090               0.000000000               0.000000000               0.000000000               0.000000000               0.000036174               0.005137740               0.000028118              -0.000628651               0.001922113               0.001293462               0.000000000               0.000000000               0.000000000               0.000000000               0.001328138               0.011721867              -0.001728120              -0.000967180               0.004229643               0.003262463               0.000000000               0.000000000               0.000000000               0.000000000               0.001209770               0.009648197              -0.001029554              -0.000752359               0.003466820               0.002714461               0.000000000               0.000000000               0.000000000               0.000000000               0.001445823               0.008052726              -0.000322799              -0.000464406               0.002839017               0.002374611               0.000000000               0.000000000               0.000000000               0.000000000               0.001399626               0.007164403              -0.000012286              -0.000370690               0.002511674               0.002140984               0.000000000               0.000000000               0.000000000               0.000000000               0.001275075               0.006622059               0.000125954              -0.000349604               0.002323865               0.001974262               0.000000000               0.000000000               0.000000000               0.000000000               0.001134325               0.006265312               0.000182844              -0.000357791               0.002207680               0.001849889               0.000000000               0.000000000               0.000000000               0.000000000               0.000995747               0.006016615               0.000204888              -0.000378671               0.002131742               0.001753071               0.000000000               0.000000000               0.000000000               0.000000000               0.000864435               0.005838690               0.000212668              -0.000405672               0.002081435               0.001675763               0.000000000               0.000000000               0.000000000               0.000000000               0.000738131               0.005707637               0.000210476              -0.000436655               0.002048078               0.001611424               0.000000000               0.000000000               0.000000000               0.000000000               0.000615096               0.005603312               0.000200855              -0.000469752               0.002024336               0.001554584               0.000000000               0.000000000               0.000000000               0.000000000               0.000500552               0.005518108               0.000189062              -0.000502055               0.002006703               0.001504648               0.000000000               0.000000000               0.000000000               0.000000000               0.000394501               0.005446067               0.000178667              -0.000532819               0.001992944               0.001460125               0.000000000               0.000000000               0.000000000               0.000000000               0.000295381               0.005380106               0.000165840              -0.000561744               0.001980599               0.001418855               0.000000000               0.000000000               0.000000000               0.000000000               0.000205473               0.005315467               0.000145117              -0.000587379               0.001967598               0.001380218               0.000000000               0.000000000               0.000000000               0.000000000               0.000127545               0.005249487               0.000113098              -0.000608355               0.001952597               0.001344241               0.000000000               0.000000000               0.000000000               0.000000000               0.000061790               0.005182525               0.000064624              -0.000624643               0.001935705               0.001311062               0.000000000               0.000000000               0.000000000               0.000000000               0.000028132               0.005139821               0.000037579              -0.000631926               0.001923899               0.001291972               0.000000000               0.000000000               0.000000000               0.000000000               0.001527780               0.010701353              -0.002354089              -0.000764751               0.003821998               0.003057247               0.000000000               0.000000000               0.000000000               0.000000000               0.001198726               0.008964268              -0.001418160              -0.000671010               0.003211730               0.002540719               0.000000000               0.000000000               0.000000000               0.000000000               0.001206224               0.007705540              -0.000477373              -0.000510857               0.002738773               0.002227916               0.000000000               0.000000000               0.000000000               0.000000000               0.001081849               0.006978053              -0.000075674              -0.000466562               0.002481515               0.002014953               0.000000000               0.000000000               0.000000000               0.000000000               0.000945228               0.006510561               0.000100301              -0.000459359               0.002323285               0.001863926               0.000000000               0.000000000               0.000000000               0.000000000               0.000818862               0.006189174               0.000173241              -0.000466572               0.002218561               0.001751989               0.000000000               0.000000000               0.000000000               0.000000000               0.000705101               0.005962927               0.000201575              -0.000480952               0.002147940               0.001666988               0.000000000               0.000000000               0.000000000               0.000000000               0.000600133               0.005796636               0.000213821              -0.000499528               0.002098702               0.001599174               0.000000000               0.000000000               0.000000000               0.000000000               0.000500884               0.005666052               0.000213804              -0.000520424               0.002062140               0.001541716               0.000000000               0.000000000               0.000000000               0.000000000               0.000407788               0.005558083               0.000205313              -0.000541838               0.002033289               0.001491450               0.000000000               0.000000000               0.000000000               0.000000000               0.000321944               0.005469597               0.000196367              -0.000562969               0.002010837               0.001447868               0.000000000               0.000000000               0.000000000               0.000000000               0.000243138               0.005394074               0.000188007              -0.000583081               0.001992367               0.001409286               0.000000000               0.000000000               0.000000000               0.000000000               0.000174201               0.005327315               0.000175074              -0.000600587               0.001975950               0.001375362               0.000000000               0.000000000               0.000000000               0.000000000               0.000116529               0.005265371               0.000151689              -0.000614471               0.001959930               0.001345458               0.000000000               0.000000000               0.000000000               0.000000000               0.000069644               0.005208214               0.000116581              -0.000624909               0.001944357               0.001319448               0.000000000               0.000000000               0.000000000               0.000000000               0.000031953               0.005161276               0.000065893              -0.000633176               0.001931467               0.001298291               0.000000000               0.000000000               0.000000000               0.000000000               0.000013963               0.005138441               0.000036826              -0.000637067               0.001925152               0.001288085               0.000000000               0.000000000               0.000000000               0.000000000               0.001711037               0.009456943              -0.002739128              -0.000540480               0.003332442               0.002791962               0.000000000               0.000000000               0.000000000               0.000000000               0.001151840               0.008135685              -0.001677661              -0.000585020               0.002906875               0.002321854               0.000000000               0.000000000               0.000000000               0.000000000               0.000913499               0.007282502              -0.000619423              -0.000567749               0.002616726               0.002048977               0.000000000               0.000000000               0.000000000               0.000000000               0.000722644               0.006739206              -0.000182990              -0.000571408               0.002436849               0.001865441               0.000000000               0.000000000               0.000000000               0.000000000               0.000587829               0.006359642               0.000005096              -0.000574518               0.002311366               0.001736848               0.000000000               0.000000000               0.000000000               0.000000000               0.000487518               0.006082885               0.000088795              -0.000577540               0.002220121               0.001642581               0.000000000               0.000000000               0.000000000               0.000000000               0.000409088               0.005882874               0.000126888              -0.000581950               0.002154922               0.001572972               0.000000000               0.000000000               0.000000000               0.000000000               0.000340990               0.005725501               0.000145385              -0.000587815               0.002104419               0.001516605               0.000000000               0.000000000               0.000000000               0.000000000               0.000275516               0.005592314               0.000153246              -0.000595719               0.002062659               0.001466940               0.000000000               0.000000000               0.000000000               0.000000000               0.000217491               0.005485046               0.000153824              -0.000604070               0.002029687               0.001425617               0.000000000               0.000000000               0.000000000               0.000000000               0.000166686               0.005396160               0.000152189              -0.000612011               0.002002706               0.001390694               0.000000000               0.000000000               0.000000000               0.000000000               0.000123518               0.005320887               0.000149176              -0.000618790               0.001979875               0.001361084               0.000000000               0.000000000               0.000000000               0.000000000               0.000088439               0.005253460               0.000139612              -0.000623516               0.001958975               0.001335458               0.000000000               0.000000000               0.000000000               0.000000000               0.000059450               0.005190197               0.000118538              -0.000626479               0.001938875               0.001312396               0.000000000               0.000000000               0.000000000               0.000000000               0.000036831               0.005137285               0.000088015              -0.000628347               0.001921860               0.001293513               0.000000000               0.000000000               0.000000000               0.000000000               0.000016687               0.005099497               0.000047760              -0.000631178               0.001910208               0.001279030               0.000000000               0.000000000               0.000000000               0.000000000               0.000006979               0.005086100               0.000024882              -0.000633144               0.001906398               0.001273254               0.000000000               0.000000000               0.000000000               0.000000000               0.001809591               0.008101419              -0.002883421              -0.000334083               0.002811806               0.002477723               0.000000000               0.000000000               0.000000000               0.000000000               0.001056157               0.007243883              -0.001818914              -0.000509427               0.002584412               0.002074985               0.000000000               0.000000000               0.000000000               0.000000000               0.000601322               0.006816419              -0.000759788              -0.000626555               0.002480969               0.001854413               0.000000000               0.000000000               0.000000000               0.000000000               0.000375692               0.006454690              -0.000331918              -0.000665950               0.002373525               0.001707575               0.000000000               0.000000000               0.000000000               0.000000000               0.000264719               0.006166041              -0.000143147              -0.000671484               0.002279155               0.001607671               0.000000000               0.000000000               0.000000000               0.000000000               0.000203680               0.005940636              -0.000049177              -0.000666198               0.002202258               0.001536060               0.000000000               0.000000000               0.000000000               0.000000000               0.000162011               0.005761315               0.000001932              -0.000659409               0.002140222               0.001480814               0.000000000               0.000000000               0.000000000               0.000000000               0.000130473               0.005610652               0.000030828              -0.000652402               0.002087666               0.001435264               0.000000000               0.000000000               0.000000000               0.000000000               0.000102757               0.005483017               0.000051623              -0.000646841               0.002043268               0.001396426               0.000000000               0.000000000               0.000000000               0.000000000               0.000078635               0.005375179               0.000066014              -0.000642408               0.002005844               0.001363437               0.000000000               0.000000000               0.000000000               0.000000000               0.000058266               0.005283138               0.000075916              -0.000638541               0.001973875               0.001335334               0.000000000               0.000000000               0.000000000               0.000000000               0.000045327               0.005203010               0.000082063              -0.000633377               0.001945445               0.001312068               0.000000000               0.000000000               0.000000000               0.000000000               0.000038862               0.005127773               0.000077597              -0.000626397               0.001918040               0.001291643               0.000000000               0.000000000               0.000000000               0.000000000               0.000029732               0.005056363               0.000063737              -0.000620894               0.001892402               0.001271508               0.000000000               0.000000000               0.000000000               0.000000000               0.000018653               0.004995900               0.000045046              -0.000617491               0.001871114               0.001253623               0.000000000               0.000000000               0.000000000               0.000000000               0.000010037               0.004950533               0.000022437              -0.000615051               0.001855178               0.001240127               0.000000000               0.000000000               0.000000000               0.000000000               0.000003617               0.004926895               0.000012436              -0.000614504               0.001847116               0.001232612               0.000000000               0.000000000               0.000000000               0.000000000               0.001787613               0.006731162              -0.002821790              -0.000171043               0.002300712               0.002129668               0.000000000               0.000000000               0.000000000               0.000000000               0.000917128               0.006357100              -0.001868315              -0.000450715               0.002269250               0.001818535               0.000000000               0.000000000               0.000000000               0.000000000               0.000309275               0.006337827              -0.000905140              -0.000676249               0.002338004               0.001661755               0.000000000               0.000000000               0.000000000               0.000000000               0.000089382               0.006142399              -0.000507464              -0.000734280               0.002292206               0.001557926               0.000000000               0.000000000               0.000000000               0.000000000               0.000018756               0.005937017              -0.000316659              -0.000735092               0.002224017               0.001488925               0.000000000               0.000000000               0.000000000               0.000000000              -0.000001944               0.005754691              -0.000210156              -0.000720064               0.002158232               0.001438169               0.000000000               0.000000000               0.000000000               0.000000000              -0.000009183               0.005596289              -0.000143832              -0.000702978               0.002099737               0.001396759               0.000000000               0.000000000               0.000000000               0.000000000              -0.000007338               0.005459411              -0.000099433              -0.000685176               0.002048178               0.001363001               0.000000000               0.000000000               0.000000000               0.000000000              -0.000005328               0.005336913              -0.000063157              -0.000669110               0.002001990               0.001332880               0.000000000               0.000000000               0.000000000               0.000000000              -0.000004506               0.005227267              -0.000031284              -0.000655097               0.001960771               0.001305674               0.000000000               0.000000000               0.000000000               0.000000000              -0.000002842               0.005131384              -0.000005474              -0.000642487               0.001924607               0.001282119               0.000000000               0.000000000               0.000000000               0.000000000               0.000001553               0.005039933               0.000012499              -0.000629408               0.001889764               0.001260356               0.000000000               0.000000000               0.000000000               0.000000000               0.000005950               0.004950655               0.000019453              -0.000616599               0.001855735               0.001239136               0.000000000               0.000000000               0.000000000               0.000000000               0.000004390               0.004868107               0.000018600              -0.000606866               0.001824975               0.001218109               0.000000000               0.000000000               0.000000000               0.000000000               0.000001796               0.004796523               0.000016770              -0.000598890               0.001798455               0.001199565               0.000000000               0.000000000               0.000000000               0.000000000               0.000000547               0.004735941               0.000010374              -0.000591786               0.001775893               0.001184107               0.000000000               0.000000000               0.000000000               0.000000000              -0.000006780               0.004695842               0.000009198              -0.000589521               0.001761772               0.001172251               0.000000000               0.000000000               0.000000000               0.000000000               0.001654112               0.005435757              -0.002591007              -0.000059181               0.001831627               0.001772446               0.000000000               0.000000000               0.000000000               0.000000000               0.000747226               0.005529797              -0.001844636              -0.000411016               0.001980252               0.001569236               0.000000000               0.000000000               0.000000000               0.000000000               0.000068905               0.005867297              -0.001054063              -0.000707571               0.002191603               0.001484032               0.000000000               0.000000000               0.000000000               0.000000000              -0.000111127               0.005811892              -0.000689715              -0.000768157               0.002193330               0.001425173               0.000000000               0.000000000               0.000000000               0.000000000              -0.000135248               0.005675079              -0.000490823              -0.000760101               0.002145041               0.001384940               0.000000000               0.000000000               0.000000000               0.000000000              -0.000121265               0.005531680              -0.000367140              -0.000736933               0.002089519               0.001352587               0.000000000               0.000000000               0.000000000               0.000000000              -0.000099145               0.005399607              -0.000281317              -0.000712129               0.002037227               0.001325099               0.000000000               0.000000000               0.000000000               0.000000000              -0.000075750               0.005277277              -0.000218183              -0.000688064               0.001988429               0.001300365               0.000000000               0.000000000               0.000000000               0.000000000              -0.000057610               0.005160705              -0.000162722              -0.000666690               0.001942448               0.001275758               0.000000000               0.000000000               0.000000000               0.000000000              -0.000041736               0.005054566              -0.000111070              -0.000647470               0.001900662               0.001253192               0.000000000               0.000000000               0.000000000               0.000000000              -0.000030494               0.004950674              -0.000068357              -0.000630268               0.001860298               0.001230030               0.000000000               0.000000000               0.000000000               0.000000000              -0.000022771               0.004845445              -0.000037453              -0.000614218               0.001819872               0.001205653               0.000000000               0.000000000               0.000000000               0.000000000              -0.000017809               0.004743345              -0.000016465              -0.000599595               0.001780964               0.001181369               0.000000000               0.000000000               0.000000000               0.000000000              -0.000019407               0.004650056              -0.000001774              -0.000588533               0.001746181               0.001157648               0.000000000               0.000000000               0.000000000               0.000000000              -0.000019907               0.004568188               0.000009223              -0.000578487               0.001715543               0.001137056               0.000000000               0.000000000               0.000000000               0.000000000              -0.000015109               0.004495196               0.000010534              -0.000567564               0.001687572               0.001120008               0.000000000               0.000000000               0.000000000               0.000000000              -0.000017032               0.004448886               0.000011342              -0.000562496               0.001670446               0.001107950               0.000000000               0.000000000               0.000000000               0.000000000               0.001454593               0.004316005              -0.002253237               0.000005968               0.001436663               0.001442632               0.000000000               0.000000000               0.000000000               0.000000000               0.000596720               0.004789283              -0.001784423              -0.000374891               0.001721375               0.001346484               0.000000000               0.000000000               0.000000000               0.000000000              -0.000083533               0.005427987              -0.001222786              -0.000709822               0.002045918               0.001336096               0.000000000               0.000000000               0.000000000               0.000000000              -0.000221605               0.005508610              -0.000886353              -0.000771677               0.002093410               0.001321734               0.000000000               0.000000000               0.000000000               0.000000000              -0.000210420               0.005443305              -0.000672252              -0.000759319               0.002067523               0.001308204               0.000000000               0.000000000               0.000000000               0.000000000              -0.000170700               0.005347265              -0.000525713              -0.000732419               0.002026543               0.001294124               0.000000000               0.000000000               0.000000000               0.000000000              -0.000130243               0.005246986              -0.000417360              -0.000704712               0.001983882               0.001279169               0.000000000               0.000000000               0.000000000               0.000000000              -0.000091275               0.005140869              -0.000331742              -0.000676835               0.001939217               0.001262382               0.000000000               0.000000000               0.000000000               0.000000000              -0.000065441               0.005036382              -0.000257443              -0.000654087               0.001896806               0.001242719               0.000000000               0.000000000               0.000000000               0.000000000              -0.000046235               0.004933302              -0.000191169              -0.000633999               0.001855751               0.001221751               0.000000000               0.000000000               0.000000000               0.000000000              -0.000033546               0.004821305              -0.000134234              -0.000615241               0.001812166               0.001196925               0.000000000               0.000000000               0.000000000               0.000000000              -0.000029284               0.004702089              -0.000088133              -0.000598741               0.001766928               0.001168187               0.000000000               0.000000000               0.000000000               0.000000000              -0.000032191               0.004586921              -0.000050617              -0.000585435               0.001724104               0.001138668               0.000000000               0.000000000               0.000000000               0.000000000              -0.000041100               0.004484445              -0.000020983              -0.000575967               0.001686789               0.001110822               0.000000000               0.000000000               0.000000000               0.000000000              -0.000052703               0.004390131              -0.000001141              -0.000568529               0.001652872               0.001084343               0.000000000               0.000000000               0.000000000               0.000000000              -0.000058640               0.004301139               0.000005664              -0.000559631               0.001620242               0.001060611               0.000000000               0.000000000               0.000000000               0.000000000              -0.000057590               0.004253369               0.000006469              -0.000553266               0.001602197               0.001048932               0.000000000               0.000000000               0.000000000               0.000000000               0.001178011               0.003257466              -0.001871581               0.000034568               0.001074288               0.001108855               0.000000000               0.000000000               0.000000000               0.000000000               0.000495548               0.003945342              -0.001704794              -0.000307338               0.001417546               0.001110208               0.000000000               0.000000000               0.000000000               0.000000000              -0.000118538               0.004797416              -0.001411131              -0.000644128               0.001813832               0.001169703               0.000000000               0.000000000               0.000000000               0.000000000              -0.000245492               0.005050875              -0.001118280              -0.000723418               0.001924747               0.001201330               0.000000000               0.000000000               0.000000000               0.000000000              -0.000229492               0.005101537              -0.000890402              -0.000723750               0.001941745               0.001217995               0.000000000               0.000000000               0.000000000               0.000000000              -0.000182379               0.005087912              -0.000716046              -0.000704380               0.001930747               0.001226367               0.000000000               0.000000000               0.000000000               0.000000000              -0.000139165               0.005044533              -0.000582925              -0.000682752               0.001909078               0.001226326               0.000000000               0.000000000               0.000000000               0.000000000              -0.000099688               0.004978326              -0.000474223              -0.000659672               0.001879316               0.001219644               0.000000000               0.000000000               0.000000000               0.000000000              -0.000070751               0.004899853              -0.000381609              -0.000639012               0.001846272               0.001207260               0.000000000               0.000000000               0.000000000               0.000000000              -0.000054744               0.004812704              -0.000301645              -0.000622115               0.001811590               0.001189475               0.000000000               0.000000000               0.000000000               0.000000000              -0.000044149               0.004717555              -0.000230570              -0.000606249               0.001774586               0.001168337               0.000000000               0.000000000               0.000000000               0.000000000              -0.000042189               0.004608342              -0.000166954              -0.000591862               0.001733386               0.001141524               0.000000000               0.000000000               0.000000000               0.000000000              -0.000049681               0.004499729              -0.000109386              -0.000581095               0.001693593               0.001112498               0.000000000               0.000000000               0.000000000               0.000000000              -0.000065967               0.004399974              -0.000060270              -0.000574733               0.001658221               0.001083488               0.000000000               0.000000000               0.000000000               0.000000000              -0.000090594               0.004305222              -0.000025259              -0.000572124               0.001625768               0.001053643               0.000000000               0.000000000               0.000000000               0.000000000              -0.000118116               0.004213729              -0.000006202              -0.000571008               0.001594898               0.001023890               0.000000000               0.000000000               0.000000000               0.000000000              -0.000130342               0.004167447               0.000000031              -0.000569808               0.001579071               0.001009263               0.000000000               0.000000000               0.000000000               0.000000000               0.000764234               0.002295068              -0.001459963              -0.000000298               0.000765114               0.000764815               0.000000000               0.000000000               0.000000000               0.000000000               0.000373226               0.003112655              -0.001575152              -0.000249123               0.001120582               0.000871459               0.000000000               0.000000000               0.000000000               0.000000000              -0.000088404               0.004089881              -0.001551598              -0.000544386               0.001544742               0.001000355               0.000000000               0.000000000               0.000000000               0.000000000              -0.000202381               0.004506940              -0.001337697              -0.000639260               0.001715385               0.001076125               0.000000000               0.000000000               0.000000000               0.000000000              -0.000196910               0.004690334              -0.001116190              -0.000660132               0.001783473               0.001123341               0.000000000               0.000000000               0.000000000               0.000000000              -0.000156888               0.004771846              -0.000925817              -0.000655312               0.001809037               0.001153724               0.000000000               0.000000000               0.000000000               0.000000000              -0.000117871               0.004801718              -0.000772145              -0.000644415               0.001815362               0.001170947               0.000000000               0.000000000               0.000000000               0.000000000              -0.000085380               0.004794195              -0.000644046              -0.000631291               0.001808479               0.001177188               0.000000000               0.000000000               0.000000000               0.000000000              -0.000056116               0.004755799              -0.000535957              -0.000615517               0.001790423               0.001174906               0.000000000               0.000000000               0.000000000               0.000000000              -0.000038562               0.004698311              -0.000445073              -0.000601748               0.001766671               0.001164923               0.000000000               0.000000000               0.000000000               0.000000000              -0.000027791               0.004628265              -0.000365021              -0.000588953               0.001739057               0.001150104               0.000000000               0.000000000               0.000000000               0.000000000              -0.000024461               0.004544996              -0.000287826              -0.000577296               0.001707415               0.001130120               0.000000000               0.000000000               0.000000000               0.000000000              -0.000033173               0.004455195              -0.000212452              -0.000569338               0.001674830               0.001105492               0.000000000               0.000000000               0.000000000               0.000000000              -0.000056174               0.004365642              -0.000142043              -0.000566769               0.001644123               0.001077354               0.000000000               0.000000000               0.000000000               0.000000000              -0.000097098               0.004279380              -0.000080542              -0.000571333               0.001616890               0.001045557               0.000000000               0.000000000               0.000000000               0.000000000              -0.000155691               0.004198829              -0.000033433              -0.000583236               0.001594008               0.001010772               0.000000000               0.000000000               0.000000000               0.000000000              -0.000199037               0.004153247              -0.000009428              -0.000593793               0.001582333               0.000988540               0.000000000               0.000000000               0.000000000               0.000000000               0.000226889               0.001471797              -0.001041818              -0.000098892               0.000523557               0.000424665               0.000000000               0.000000000               0.000000000               0.000000000               0.000190060               0.002321469              -0.001378075              -0.000218912               0.000846785               0.000627873               0.000000000               0.000000000               0.000000000               0.000000000              -0.000033470               0.003309010              -0.001577763              -0.000426178               0.001245051               0.000818873               0.000000000               0.000000000               0.000000000               0.000000000              -0.000093524               0.003844312              -0.001461519              -0.000515610               0.001453294               0.000937684               0.000000000               0.000000000               0.000000000               0.000000000              -0.000089981               0.004148438              -0.001275332              -0.000552297               0.001566897               0.001014600               0.000000000               0.000000000               0.000000000               0.000000000              -0.000062214               0.004333615              -0.001089910              -0.000565031               0.001632867               0.001067836               0.000000000               0.000000000               0.000000000               0.000000000              -0.000036553               0.004449713              -0.000928240              -0.000569921               0.001673196               0.001103276               0.000000000               0.000000000               0.000000000               0.000000000              -0.000017570               0.004512595              -0.000792301              -0.000570662               0.001694404               0.001123742               0.000000000               0.000000000               0.000000000               0.000000000               0.000002883               0.004531501              -0.000677123              -0.000565355               0.001698937               0.001133581               0.000000000               0.000000000               0.000000000               0.000000000               0.000018930               0.004517096              -0.000580442              -0.000557537               0.001691529               0.001133992               0.000000000               0.000000000               0.000000000               0.000000000               0.000027504               0.004483768              -0.000495876              -0.000550156               0.001677960               0.001127804               0.000000000               0.000000000               0.000000000               0.000000000               0.000031319               0.004441541              -0.000411620              -0.000543447               0.001661648               0.001118201               0.000000000               0.000000000               0.000000000               0.000000000               0.000024858               0.004389210              -0.000325025              -0.000539328               0.001642831               0.001103503               0.000000000               0.000000000               0.000000000               0.000000000               0.000001333               0.004326898              -0.000238324              -0.000540361               0.001622405               0.001082044               0.000000000               0.000000000               0.000000000               0.000000000              -0.000044831               0.004258242              -0.000152274              -0.000549091               0.001602430               0.001053339               0.000000000               0.000000000               0.000000000               0.000000000              -0.000120120               0.004189959              -0.000072439              -0.000568788               0.001586235               0.001017447               0.000000000               0.000000000               0.000000000               0.000000000              -0.000186439               0.004143091              -0.000027093              -0.000587800               0.001576950               0.000989150               0.000000000               0.000000000               0.000000000               0.000000000              -0.000382816               0.000816405              -0.000659886              -0.000245607               0.000354001               0.000108394               0.000000000               0.000000000               0.000000000               0.000000000              -0.000035890               0.001603694              -0.001129942              -0.000213921               0.000605865               0.000391945               0.000000000               0.000000000               0.000000000               0.000000000               0.000033136               0.002509470              -0.001478786              -0.000301259               0.000936900               0.000635642               0.000000000               0.000000000               0.000000000               0.000000000               0.000063486               0.003109821              -0.001452030              -0.000364921               0.001158236               0.000793315               0.000000000               0.000000000               0.000000000               0.000000000               0.000081788               0.003513025              -0.001315488              -0.000408458               0.001307149               0.000898691               0.000000000               0.000000000               0.000000000               0.000000000               0.000099271               0.003796282              -0.001154755              -0.000437308               0.001411184               0.000973875               0.000000000               0.000000000               0.000000000               0.000000000               0.000111187               0.003999707              -0.001003938              -0.000458268               0.001485978               0.001027711               0.000000000               0.000000000               0.000000000               0.000000000               0.000117402               0.004138213              -0.000876281              -0.000473250               0.001537140               0.001063890               0.000000000               0.000000000               0.000000000               0.000000000               0.000124597               0.004225607              -0.000767240              -0.000481476               0.001569014               0.001087538               0.000000000               0.000000000               0.000000000               0.000000000               0.000131543               0.004271484              -0.000672362              -0.000484606               0.001585349               0.001100743               0.000000000               0.000000000               0.000000000               0.000000000               0.000132610               0.004289095              -0.000588939              -0.000486407               0.001591820               0.001105413               0.000000000               0.000000000               0.000000000               0.000000000               0.000132365               0.004295379              -0.000505413              -0.000487284               0.001594207               0.001106923               0.000000000               0.000000000               0.000000000               0.000000000               0.000130256               0.004288453              -0.000416496              -0.000487210               0.001591873               0.001104664               0.000000000               0.000000000               0.000000000               0.000000000               0.000117370               0.004263418              -0.000323083              -0.000488912               0.001584096               0.001095184               0.000000000               0.000000000               0.000000000               0.000000000               0.000085441               0.004223524              -0.000221349              -0.000495899               0.001573127               0.001077228               0.000000000               0.000000000               0.000000000               0.000000000               0.000023682               0.004174936              -0.000112605              -0.000512985               0.001562626               0.001049641               0.000000000               0.000000000               0.000000000               0.000000000              -0.000038090               0.004136603              -0.000050754              -0.000531358               0.001555973               0.001024615               0.000000000               0.000000000               0.000000000               0.000000000              -0.000988646               0.000348274              -0.000355087              -0.000414276               0.000254181              -0.000160095               0.000000000               0.000000000               0.000000000               0.000000000              -0.000277358               0.001004621              -0.000849566              -0.000229587               0.000411399               0.000181811               0.000000000               0.000000000               0.000000000               0.000000000               0.000096071               0.001766284              -0.001252182              -0.000184760               0.000650341               0.000465582               0.000000000               0.000000000               0.000000000               0.000000000               0.000235199               0.002385236              -0.001288993              -0.000209956               0.000865055               0.000655099               0.000000000               0.000000000               0.000000000               0.000000000               0.000285608               0.002858612              -0.001202359              -0.000250224               0.001036269               0.000786045               0.000000000               0.000000000               0.000000000               0.000000000               0.000303382               0.003219311              -0.001078425              -0.000288646               0.001169308               0.000880662               0.000000000               0.000000000               0.000000000               0.000000000               0.000309079               0.003498318              -0.000954244              -0.000321385               0.001273222               0.000951837               0.000000000               0.000000000               0.000000000               0.000000000               0.000305480               0.003710579              -0.000847707              -0.000349267               0.001353270               0.001004002               0.000000000               0.000000000               0.000000000               0.000000000               0.000298561               0.003867357              -0.000756051              -0.000371459               0.001412925               0.001041467               0.000000000               0.000000000               0.000000000               0.000000000               0.000293407               0.003978432              -0.000672633              -0.000387276               0.001455223               0.001067947               0.000000000               0.000000000               0.000000000               0.000000000               0.000287178               0.004052548              -0.000597459              -0.000398876               0.001483795               0.001084919               0.000000000               0.000000000               0.000000000               0.000000000               0.000282276               0.004105120              -0.000524352              -0.000407286               0.001504121               0.001096836               0.000000000               0.000000000               0.000000000               0.000000000               0.000283284               0.004145904              -0.000446004              -0.000412005               0.001519289               0.001107284               0.000000000               0.000000000               0.000000000               0.000000000               0.000283996               0.004165733              -0.000358626              -0.000414217               0.001526636               0.001112419               0.000000000               0.000000000               0.000000000               0.000000000               0.000277075               0.004162234              -0.000257381              -0.000416375               0.001526189               0.001109814               0.000000000               0.000000000               0.000000000               0.000000000               0.000258514               0.004147878              -0.000137660              -0.000421541               0.001523126               0.001101585               0.000000000               0.000000000               0.000000000               0.000000000               0.000233900               0.004132656              -0.000069445              -0.000428868               0.001520494               0.001091626               0.000000000               0.000000000               0.000000000               0.000000000              -0.001506191               0.000052073              -0.000151717              -0.000571330               0.000207800              -0.000363530               0.000000000               0.000000000               0.000000000               0.000000000              -0.000498703               0.000561528              -0.000557369              -0.000257205               0.000272908               0.000015704               0.000000000               0.000000000               0.000000000               0.000000000               0.000142355               0.001166790              -0.000907591              -0.000092466               0.000419747               0.000327281               0.000000000               0.000000000               0.000000000               0.000000000               0.000389637               0.001766436              -0.000971777              -0.000074691               0.000613703               0.000539011               0.000000000               0.000000000               0.000000000               0.000000000               0.000480395               0.002275075              -0.000926725              -0.000104237               0.000793096               0.000688859               0.000000000               0.000000000               0.000000000               0.000000000               0.000507062               0.002687953              -0.000844788              -0.000145846               0.000944591               0.000798744               0.000000000               0.000000000               0.000000000               0.000000000               0.000510217               0.003023489              -0.000756526              -0.000186605               0.001070021               0.000883416               0.000000000               0.000000000               0.000000000               0.000000000               0.000500453               0.003294800              -0.000677284              -0.000224180               0.001172982               0.000948802               0.000000000               0.000000000               0.000000000               0.000000000               0.000483153               0.003508717              -0.000609791              -0.000257407               0.001255363               0.000997956               0.000000000               0.000000000               0.000000000               0.000000000               0.000466239               0.003676098              -0.000548271              -0.000284672               0.001320244               0.001035572               0.000000000               0.000000000               0.000000000               0.000000000               0.000453536               0.003804576              -0.000491628              -0.000305495               0.001370011               0.001064516               0.000000000               0.000000000               0.000000000               0.000000000               0.000446460               0.003906492              -0.000436565              -0.000320888               0.001409114               0.001088225               0.000000000               0.000000000               0.000000000               0.000000000               0.000448557               0.003993036              -0.000377195              -0.000330920               0.001441305               0.001110385               0.000000000               0.000000000               0.000000000               0.000000000               0.000461286               0.004059933              -0.000309305              -0.000334509               0.001464800               0.001130292               0.000000000               0.000000000               0.000000000               0.000000000               0.000485827               0.004102156              -0.000229055              -0.000330584               0.001477566               0.001146983               0.000000000               0.000000000               0.000000000               0.000000000               0.000523025               0.004121570              -0.000126888              -0.000319061               0.001480197               0.001161136               0.000000000               0.000000000               0.000000000               0.000000000               0.000554264               0.004128062              -0.000068826              -0.000308158               0.001478726               0.001170568               0.000000000               0.000000000               0.000000000               0.000000000              -0.001852407              -0.000097040              -0.000043674              -0.000682522               0.000195159              -0.000487363               0.000000000               0.000000000               0.000000000               0.000000000              -0.000660975               0.000299160              -0.000271505              -0.000285260               0.000194805              -0.000090455               0.000000000               0.000000000               0.000000000               0.000000000               0.000167985               0.000782642              -0.000475912              -0.000034837               0.000272490               0.000237654               0.000000000               0.000000000               0.000000000               0.000000000               0.000499571               0.001347742              -0.000523646               0.000018871               0.000442952               0.000461823               0.000000000               0.000000000               0.000000000               0.000000000               0.000624316               0.001866182              -0.000506585               0.000000845               0.000621772               0.000622618               0.000000000               0.000000000               0.000000000               0.000000000               0.000662423               0.002308382              -0.000465997              -0.000040139               0.000782833               0.000742693               0.000000000               0.000000000               0.000000000               0.000000000               0.000662786               0.002674298              -0.000420256              -0.000085743               0.000920005               0.000834262               0.000000000               0.000000000               0.000000000               0.000000000               0.000648366               0.002980383              -0.000378155              -0.000129411               0.001036588               0.000907177               0.000000000               0.000000000               0.000000000               0.000000000               0.000624770               0.003236359              -0.000341640              -0.000170256               0.001135527               0.000965272               0.000000000               0.000000000               0.000000000               0.000000000               0.000597820               0.003446955              -0.000308539              -0.000206686               0.001217869               0.001011182               0.000000000               0.000000000               0.000000000               0.000000000               0.000574695               0.003617719              -0.000277904              -0.000236704               0.001284796               0.001048092               0.000000000               0.000000000               0.000000000               0.000000000               0.000561780               0.003757991              -0.000247261              -0.000259081               0.001339012               0.001079931               0.000000000               0.000000000               0.000000000               0.000000000               0.000566697               0.003878684              -0.000214308              -0.000272324               0.001383656               0.001111333               0.000000000               0.000000000               0.000000000               0.000000000               0.000594084               0.003978292              -0.000176919              -0.000274504               0.001417585               0.001143081               0.000000000               0.000000000               0.000000000               0.000000000               0.000648947               0.004054328              -0.000132391              -0.000263435               0.001439241               0.001175806               0.000000000               0.000000000               0.000000000               0.000000000               0.000736772               0.004101758              -0.000074477              -0.000236430               0.001446049               0.001209619               0.000000000               0.000000000               0.000000000               0.000000000               0.000817485               0.004125869              -0.000042442              -0.000209176               0.001445001               0.001235825               0.000000000               0.000000000               0.000000000               0.000000000              -0.001973486              -0.000136383              -0.000000000              -0.000723009               0.000195541              -0.000527468               0.000000000               0.000000000               0.000000000               0.000000000              -0.000722330               0.000215781              -0.000000000              -0.000297846               0.000171208              -0.000126638               0.000000000               0.000000000               0.000000000               0.000000000               0.000175807               0.000650928               0.000000000              -0.000015439               0.000222120               0.000206681               0.000000000               0.000000000               0.000000000               0.000000000               0.000539511               0.001197955               0.000000000               0.000052572               0.000381790               0.000434362               0.000000000               0.000000000               0.000000000               0.000000000               0.000677921               0.001716482               0.000000000               0.000039660               0.000558935               0.000598595               0.000000000               0.000000000               0.000000000               0.000000000               0.000721046               0.002168885               0.000000000              -0.000000719               0.000723194               0.000722475               0.000000000               0.000000000               0.000000000               0.000000000               0.000722851               0.002547160               0.000000000              -0.000047326               0.000864820               0.000817494               0.000000000               0.000000000               0.000000000               0.000000000               0.000705953               0.002864212              -0.000000000              -0.000093294               0.000985826               0.000892532               0.000000000               0.000000000               0.000000000               0.000000000               0.000677528               0.003134194              -0.000000000              -0.000137701               0.001090621               0.000952920               0.000000000               0.000000000               0.000000000               0.000000000               0.000645182               0.003359828              -0.000000000              -0.000178035               0.001179277               0.001001242               0.000000000               0.000000000               0.000000000               0.000000000               0.000616471               0.003546926               0.000000000              -0.000212189               0.001253027               0.001040838               0.000000000               0.000000000               0.000000000               0.000000000               0.000601326               0.003704301               0.000000000              -0.000237540               0.001313935               0.001076395               0.000000000               0.000000000               0.000000000               0.000000000               0.000608215               0.003835287              -0.000000000              -0.000251330               0.001362193               0.001110863               0.000000000               0.000000000               0.000000000               0.000000000               0.000642890               0.003943704              -0.000000000              -0.000251879               0.001398514               0.001146636               0.000000000               0.000000000               0.000000000               0.000000000               0.000711618               0.004032186              -0.000000000              -0.000237166               0.001423104               0.001185938               0.000000000               0.000000000               0.000000000               0.000000000               0.000819817               0.004090498              -0.000000000              -0.000203881               0.001431446               0.001227566               0.000000000               0.000000000               0.000000000               0.000000000               0.000918464               0.004121332              -0.000000000              -0.000170742               0.001430678               0.001259935               0.000000000               0.000000000               0.000000000               0.000000000               0.000000000               0.000000000               0.000000000               0.000000000               0.000000000               0.000000000               0.000000000               0.000000000               0.000000000               0.000000000               0.000000000               0.000000000               0.000000000               0.000000000               0.000000000               0.000000000               0.000000000               0.000000000               0.000000000               0.000000000               0.000000000               0.000000000               0.000000000               0.000000000               0.000000000               0.000000000               0.000000000               0.000000000               0.000000000               0.000000000               0.000000000               0.000000000               0.000000000               0.000000000               0.000000000               0.000000000               0.000000000               0.000000000               0.000000000               0.000000000               0.000000000               0.000000000               0.000000000               0.000000000               0.000000000               0.000000000               0.000000000               0.000000000               0.000000000               0.000000000               0.000000000               0.000000000               0.000000000               0.000000000               0.000000000               0.000000000               0.000000000               0.000000000               0.000000000               0.000000000               0.000000000               0.000000000               0.000000000               0.000000000               0.000000000               0.000000000               0.000000000               0.000000000               0.000000000               0.000000000               0.000000000               0.000000000               0.000000000               0.000000000               0.000000000               0.000000000               0.000000000               0.000000000               0.000000000               0.000000000               0.000000000               0.000000000               0.000000000               0.000000000               0.000000000               0.000000000               0.000000000               0.000000000               0.000000000               0.000000000               0.000000000               0.000000000               0.000000000               0.000000000               0.000000000               0.000000000               0.000000000               0.000000000               0.000000000               0.000000000               0.000000000               0.000000000               0.000000000               0.000000000               0.000000000               0.000000000               0.000000000               0.000000000               0.000000000               0.000000000               0.000000000               0.000000000               0.000000000               0.000000000               0.000000000               0.000000000               0.000000000               0.000000000               0.000000000               0.000000000               0.000000000               0.000000000               0.000000000               0.000000000               0.000000000               0.000000000               0.000000000               0.000000000               0.000000000               0.000000000               0.000000000               0.000000000               0.000000000               0.000000000               0.000000000               0.000000000               0.000000000               0.000000000               0.000000000               0.000000000               0.000000000               0.000000000               0.000000000               0.000000000               0.000000000               0.000000000               0.000000000               0.000000000               0.000000000               0.000000000               0.000000000               0.000000000               0.000000000               0.000000000               0.000000000               0.000000000               0.000000000               0.000000000               0.000000000               0.000000000               0.000000000               0.000000000               0.000000000               0.000000000               0.000000000               0.000000000               0.000000000               0.000000000               0.000000000               0.000000000               0.001180362               0.012397857               0.000914213              -0.001107094               0.004501609               0.003394515               0.000000000               0.000000000               0.000000000               0.000000000               0.001209237               0.010100554               0.000540488              -0.000809103               0.003636519               0.002827415               0.000000000               0.000000000               0.000000000               0.000000000               0.001607540               0.008279639               0.000161318              -0.000432126               0.002903894               0.002471768               0.000000000               0.000000000               0.000000000               0.000000000               0.001622462               0.007281088              -0.000008408              -0.000301712               0.002527576               0.002225864               0.000000000               0.000000000               0.000000000               0.000000000               0.001510248               0.006688079              -0.000084546              -0.000269666               0.002319226               0.002049560               0.000000000               0.000000000               0.000000000               0.000000000               0.001363015               0.006308241              -0.000116392              -0.000277399               0.002195192               0.001917793               0.000000000               0.000000000               0.000000000               0.000000000               0.001213436               0.006050206              -0.000129182              -0.000301236               0.002117127               0.001815891               0.000000000               0.000000000               0.000000000               0.000000000               0.001067695               0.005868903              -0.000133550              -0.000333226               0.002067357               0.001734131               0.000000000               0.000000000               0.000000000               0.000000000               0.000923260               0.005736443              -0.000132102              -0.000370832               0.002035739               0.001664907               0.000000000               0.000000000               0.000000000               0.000000000               0.000782507               0.005634899              -0.000126188              -0.000410921               0.002015255               0.001604333               0.000000000               0.000000000               0.000000000               0.000000000               0.000651507               0.005553040              -0.000119454              -0.000449814               0.002000933               0.001551119               0.000000000               0.000000000               0.000000000               0.000000000               0.000528237               0.005483972              -0.000113983              -0.000487406               0.001990441               0.001503035               0.000000000               0.000000000               0.000000000               0.000000000               0.000406974               0.005421334              -0.000107179              -0.000525050               0.001982110               0.001457060               0.000000000               0.000000000               0.000000000               0.000000000               0.000289925               0.005358207              -0.000096164              -0.000561053               0.001973069               0.001412016               0.000000000               0.000000000               0.000000000               0.000000000               0.000181674               0.005287698              -0.000077665              -0.000592833               0.001960159               0.001367326               0.000000000               0.000000000               0.000000000               0.000000000               0.000086023               0.005202403              -0.000046124              -0.000618040               0.001940130               0.001322090               0.000000000               0.000000000               0.000000000               0.000000000               0.000036174               0.005137740              -0.000028118              -0.000628651               0.001922113               0.001293462               0.000000000               0.000000000               0.000000000               0.000000000               0.001328138               0.011721867               0.001728120              -0.000967180               0.004229643               0.003262463               0.000000000               0.000000000               0.000000000               0.000000000               0.001209770               0.009648197               0.001029554              -0.000752359               0.003466820               0.002714461               0.000000000               0.000000000               0.000000000               0.000000000               0.001445823               0.008052726               0.000322799              -0.000464406               0.002839017               0.002374611               0.000000000               0.000000000               0.000000000               0.000000000               0.001399626               0.007164403               0.000012286              -0.000370690               0.002511674               0.002140984               0.000000000               0.000000000               0.000000000               0.000000000               0.001275075               0.006622059              -0.000125954              -0.000349604               0.002323865               0.001974262               0.000000000               0.000000000               0.000000000               0.000000000               0.001134325               0.006265312              -0.000182844              -0.000357791               0.002207680               0.001849889               0.000000000               0.000000000               0.000000000               0.000000000               0.000995747               0.006016615              -0.000204888              -0.000378671               0.002131742               0.001753071               0.000000000               0.000000000               0.000000000               0.000000000               0.000864435               0.005838690              -0.000212668              -0.000405672               0.002081435               0.001675763               0.000000000               0.000000000               0.000000000               0.000000000               0.000738131               0.005707637              -0.000210476              -0.000436655               0.002048078               0.001611424               0.000000000               0.000000000               0.000000000               0.000000000               0.000615096               0.005603312              -0.000200855              -0.000469752               0.002024336               0.001554584               0.000000000               0.000000000               0.000000000               0.000000000               0.000500552               0.005518108              -0.000189062              -0.000502055               0.002006703               0.001504648               0.000000000               0.000000000               0.000000000               0.000000000               0.000394501               0.005446067              -0.000178667              -0.000532819               0.001992944               0.001460125               0.000000000               0.000000000               0.000000000               0.000000000               0.000295381               0.005380106              -0.000165840              -0.000561744               0.001980599               0.001418855               0.000000000               0.000000000               0.000000000               0.000000000               0.000205473               0.005315467              -0.000145117              -0.000587379               0.001967598               0.001380218               0.000000000               0.000000000               0.000000000               0.000000000               0.000127545               0.005249487              -0.000113098              -0.000608355               0.001952597               0.001344241               0.000000000               0.000000000               0.000000000               0.000000000               0.000061790               0.005182525              -0.000064624              -0.000624643               0.001935705               0.001311062               0.000000000               0.000000000               0.000000000               0.000000000               0.000028132               0.005139821              -0.000037579              -0.000631926               0.001923899               0.001291972               0.000000000               0.000000000               0.000000000               0.000000000               0.001527780               0.010701353               0.002354089              -0.000764751               0.003821998               0.003057247               0.000000000               0.000000000               0.000000000               0.000000000               0.001198726               0.008964268               0.001418160              -0.000671010               0.003211730               0.002540719               0.000000000               0.000000000               0.000000000               0.000000000               0.001206224               0.007705540               0.000477373              -0.000510857               0.002738773               0.002227916               0.000000000               0.000000000               0.000000000               0.000000000               0.001081849               0.006978053               0.000075674              -0.000466562               0.002481515               0.002014953               0.000000000               0.000000000               0.000000000               0.000000000               0.000945228               0.006510561              -0.000100301              -0.000459359               0.002323285               0.001863926               0.000000000               0.000000000               0.000000000               0.000000000               0.000818862               0.006189174              -0.000173241              -0.000466572               0.002218561               0.001751989               0.000000000               0.000000000               0.000000000               0.000000000               0.000705101               0.005962927              -0.000201575              -0.000480952               0.002147940               0.001666988               0.000000000               0.000000000               0.000000000               0.000000000               0.000600133               0.005796636              -0.000213821              -0.000499528               0.002098702               0.001599174               0.000000000               0.000000000               0.000000000               0.000000000               0.000500884               0.005666052              -0.000213804              -0.000520424               0.002062140               0.001541716               0.000000000               0.000000000               0.000000000               0.000000000               0.000407788               0.005558083              -0.000205313              -0.000541838               0.002033289               0.001491450               0.000000000               0.000000000               0.000000000               0.000000000               0.000321944               0.005469597              -0.000196367              -0.000562969               0.002010837               0.001447868               0.000000000               0.000000000               0.000000000               0.000000000               0.000243138               0.005394074              -0.000188007              -0.000583081               0.001992367               0.001409286               0.000000000               0.000000000               0.000000000               0.000000000               0.000174201               0.005327315              -0.000175074              -0.000600587               0.001975950               0.001375362               0.000000000               0.000000000               0.000000000               0.000000000               0.000116529               0.005265371              -0.000151689              -0.000614471               0.001959930               0.001345458               0.000000000               0.000000000               0.000000000               0.000000000               0.000069644               0.005208214              -0.000116581              -0.000624909               0.001944357               0.001319448               0.000000000               0.000000000               0.000000000               0.000000000               0.000031953               0.005161276              -0.000065893              -0.000633176               0.001931467               0.001298291               0.000000000               0.000000000               0.000000000               0.000000000               0.000013963               0.005138441              -0.000036826              -0.000637067               0.001925152               0.001288085               0.000000000               0.000000000               0.000000000               0.000000000               0.001711037               0.009456943               0.002739128              -0.000540480               0.003332442               0.002791962               0.000000000               0.000000000               0.000000000               0.000000000               0.001151840               0.008135685               0.001677661              -0.000585020               0.002906875               0.002321854               0.000000000               0.000000000               0.000000000               0.000000000               0.000913499               0.007282502               0.000619423              -0.000567749               0.002616726               0.002048977               0.000000000               0.000000000               0.000000000               0.000000000               0.000722644               0.006739206               0.000182990              -0.000571408               0.002436849               0.001865441               0.000000000               0.000000000               0.000000000               0.000000000               0.000587829               0.006359642              -0.000005096              -0.000574518               0.002311366               0.001736848               0.000000000               0.000000000               0.000000000               0.000000000               0.000487518               0.006082885              -0.000088795              -0.000577540               0.002220121               0.001642581               0.000000000               0.000000000               0.000000000               0.000000000               0.000409088               0.005882874              -0.000126888              -0.000581950               0.002154922               0.001572972               0.000000000               0.000000000               0.000000000               0.000000000               0.000340990               0.005725501              -0.000145385              -0.000587815               0.002104419               0.001516605               0.000000000               0.000000000               0.000000000               0.000000000               0.000275516               0.005592314              -0.000153246              -0.000595719               0.002062659               0.001466940               0.000000000               0.000000000               0.000000000               0.000000000               0.000217491               0.005485046              -0.000153824              -0.000604070               0.002029687               0.001425617               0.000000000               0.000000000               0.000000000               0.000000000               0.000166686               0.005396160              -0.000152189              -0.000612011               0.002002706               0.001390694               0.000000000               0.000000000               0.000000000               0.000000000               0.000123518               0.005320887              -0.000149176              -0.000618790               0.001979875               0.001361084               0.000000000               0.000000000               0.000000000               0.000000000               0.000088439               0.005253460              -0.000139612              -0.000623516               0.001958975               0.001335458               0.000000000               0.000000000               0.000000000               0.000000000               0.000059450               0.005190197              -0.000118538              -0.000626479               0.001938875               0.001312396               0.000000000               0.000000000               0.000000000               0.000000000               0.000036831               0.005137285              -0.000088015              -0.000628347               0.001921860               0.001293513               0.000000000               0.000000000               0.000000000               0.000000000               0.000016687               0.005099497              -0.000047760              -0.000631178               0.001910208               0.001279030               0.000000000               0.000000000               0.000000000               0.000000000               0.000006979               0.005086100              -0.000024882              -0.000633144               0.001906398               0.001273254               0.000000000               0.000000000               0.000000000               0.000000000               0.001809591               0.008101419               0.002883421              -0.000334083               0.002811806               0.002477723               0.000000000               0.000000000               0.000000000               0.000000000               0.001056157               0.007243883               0.001818914              -0.000509427               0.002584412               0.002074985               0.000000000               0.000000000               0.000000000               0.000000000               0.000601322               0.006816419               0.000759788              -0.000626555               0.002480969               0.001854413               0.000000000               0.000000000               0.000000000               0.000000000               0.000375692               0.006454690               0.000331918              -0.000665950               0.002373525               0.001707575               0.000000000               0.000000000               0.000000000               0.000000000               0.000264719               0.006166041               0.000143147              -0.000671484               0.002279155               0.001607671               0.000000000               0.000000000               0.000000000               0.000000000               0.000203680               0.005940636               0.000049177              -0.000666198               0.002202258               0.001536060               0.000000000               0.000000000               0.000000000               0.000000000               0.000162011               0.005761315              -0.000001932              -0.000659409               0.002140222               0.001480814               0.000000000               0.000000000               0.000000000               0.000000000               0.000130473               0.005610652              -0.000030828              -0.000652402               0.002087666               0.001435264               0.000000000               0.000000000               0.000000000               0.000000000               0.000102757               0.005483017              -0.000051623              -0.000646841               0.002043268               0.001396426               0.000000000               0.000000000               0.000000000               0.000000000               0.000078635               0.005375179              -0.000066014              -0.000642408               0.002005844               0.001363437               0.000000000               0.000000000               0.000000000               0.000000000               0.000058266               0.005283138              -0.000075916              -0.000638541               0.001973875               0.001335334               0.000000000               0.000000000               0.000000000               0.000000000               0.000045327               0.005203010              -0.000082063              -0.000633377               0.001945445               0.001312068               0.000000000               0.000000000               0.000000000               0.000000000               0.000038862               0.005127773              -0.000077597              -0.000626397               0.001918040               0.001291643               0.000000000               0.000000000               0.000000000               0.000000000               0.000029732               0.005056363              -0.000063737              -0.000620894               0.001892402               0.001271508               0.000000000               0.000000000               0.000000000               0.000000000               0.000018653               0.004995900              -0.000045046              -0.000617491               0.001871114               0.001253623               0.000000000               0.000000000               0.000000000               0.000000000               0.000010037               0.004950533              -0.000022437              -0.000615051               0.001855178               0.001240127               0.000000000               0.000000000               0.000000000               0.000000000               0.000003617               0.004926895              -0.000012436              -0.000614504               0.001847116               0.001232612               0.000000000               0.000000000               0.000000000               0.000000000               0.001787613               0.006731162               0.002821790              -0.000171043               0.002300712               0.002129668               0.000000000               0.000000000               0.000000000               0.000000000               0.000917128               0.006357100               0.001868315              -0.000450715               0.002269250               0.001818535               0.000000000               0.000000000               0.000000000               0.000000000               0.000309275               0.006337827               0.000905140              -0.000676249               0.002338004               0.001661755               0.000000000               0.000000000               0.000000000               0.000000000               0.000089382               0.006142399               0.000507464              -0.000734280               0.002292206               0.001557926               0.000000000               0.000000000               0.000000000               0.000000000               0.000018756               0.005937017               0.000316659              -0.000735092               0.002224017               0.001488925               0.000000000               0.000000000               0.000000000               0.000000000              -0.000001944               0.005754691               0.000210156              -0.000720064               0.002158232               0.001438169               0.000000000               0.000000000               0.000000000               0.000000000              -0.000009183               0.005596289               0.000143832              -0.000702978               0.002099737               0.001396759               0.000000000               0.000000000               0.000000000               0.000000000              -0.000007338               0.005459411               0.000099433              -0.000685176               0.002048178               0.001363001               0.000000000               0.000000000               0.000000000               0.000000000              -0.000005328               0.005336913               0.000063157              -0.000669110               0.002001990               0.001332880               0.000000000               0.000000000               0.000000000               0.000000000              -0.000004506               0.005227267               0.000031284              -0.000655097               0.001960771               0.001305674               0.000000000               0.000000000               0.000000000               0.000000000              -0.000002842               0.005131384               0.000005474              -0.000642487               0.001924607               0.001282119               0.000000000               0.000000000               0.000000000               0.000000000               0.000001553               0.005039933              -0.000012499              -0.000629408               0.001889764               0.001260356               0.000000000               0.000000000               0.000000000               0.000000000               0.000005950               0.004950655              -0.000019453              -0.000616599               0.001855735               0.001239136               0.000000000               0.000000000               0.000000000               0.000000000               0.000004390               0.004868107              -0.000018600              -0.000606866               0.001824975               0.001218109               0.000000000               0.000000000               0.000000000               0.000000000               0.000001796               0.004796523              -0.000016770              -0.000598890               0.001798455               0.001199565               0.000000000               0.000000000               0.000000000               0.000000000               0.000000547               0.004735941              -0.000010374              -0.000591786               0.001775893               0.001184107               0.000000000               0.000000000               0.000000000               0.000000000              -0.000006780               0.004695842              -0.000009198              -0.000589521               0.001761772               0.001172251               0.000000000               0.000000000               0.000000000               0.000000000               0.001654112               0.005435757               0.002591007              -0.000059181               0.001831627               0.001772446               0.000000000               0.000000000               0.000000000               0.000000000               0.000747226               0.005529797               0.001844636              -0.000411016               0.001980252               0.001569236               0.000000000               0.000000000               0.000000000               0.000000000               0.000068905               0.005867297               0.001054063              -0.000707571               0.002191603               0.001484032               0.000000000               0.000000000               0.000000000               0.000000000              -0.000111127               0.005811892               0.000689715              -0.000768157               0.002193330               0.001425173               0.000000000               0.000000000               0.000000000               0.000000000              -0.000135248               0.005675079               0.000490823              -0.000760101               0.002145041               0.001384940               0.000000000               0.000000000               0.000000000               0.000000000              -0.000121265               0.005531680               0.000367140              -0.000736933               0.002089519               0.001352587               0.000000000               0.000000000               0.000000000               0.000000000              -0.000099145               0.005399607               0.000281317              -0.000712129               0.002037227               0.001325099               0.000000000               0.000000000               0.000000000               0.000000000              -0.000075750               0.005277277               0.000218183              -0.000688064               0.001988429               0.001300365               0.000000000               0.000000000               0.000000000               0.000000000              -0.000057610               0.005160705               0.000162722              -0.000666690               0.001942448               0.001275758               0.000000000               0.000000000               0.000000000               0.000000000              -0.000041736               0.005054566               0.000111070              -0.000647470               0.001900662               0.001253192               0.000000000               0.000000000               0.000000000               0.000000000              -0.000030494               0.004950674               0.000068357              -0.000630268               0.001860298               0.001230030               0.000000000               0.000000000               0.000000000               0.000000000              -0.000022771               0.004845445               0.000037453              -0.000614218               0.001819872               0.001205653               0.000000000               0.000000000               0.000000000               0.000000000              -0.000017809               0.004743345               0.000016465              -0.000599595               0.001780964               0.001181369               0.000000000               0.000000000               0.000000000               0.000000000              -0.000019407               0.004650056               0.000001774              -0.000588533               0.001746181               0.001157648               0.000000000               0.000000000               0.000000000               0.000000000              -0.000019907               0.004568188              -0.000009223              -0.000578487               0.001715543               0.001137056               0.000000000               0.000000000               0.000000000               0.000000000              -0.000015109               0.004495196              -0.000010534              -0.000567564               0.001687572               0.001120008               0.000000000               0.000000000               0.000000000               0.000000000              -0.000017032               0.004448886              -0.000011342              -0.000562496               0.001670446               0.001107950               0.000000000               0.000000000               0.000000000               0.000000000               0.001454593               0.004316005               0.002253237               0.000005968               0.001436663               0.001442632               0.000000000               0.000000000               0.000000000               0.000000000               0.000596720               0.004789283               0.001784423              -0.000374891               0.001721375               0.001346484               0.000000000               0.000000000               0.000000000               0.000000000              -0.000083533               0.005427987               0.001222786              -0.000709822               0.002045918               0.001336096               0.000000000               0.000000000               0.000000000               0.000000000              -0.000221605               0.005508610               0.000886353              -0.000771677               0.002093410               0.001321734               0.000000000               0.000000000               0.000000000               0.000000000              -0.000210420               0.005443305               0.000672252              -0.000759319               0.002067523               0.001308204               0.000000000               0.000000000               0.000000000               0.000000000              -0.000170700               0.005347265               0.000525713              -0.000732419               0.002026543               0.001294124               0.000000000               0.000000000               0.000000000               0.000000000              -0.000130243               0.005246986               0.000417360              -0.000704712               0.001983882               0.001279169               0.000000000               0.000000000               0.000000000               0.000000000              -0.000091275               0.005140869               0.000331742              -0.000676835               0.001939217               0.001262382               0.000000000               0.000000000               0.000000000               0.000000000              -0.000065441               0.005036382               0.000257443              -0.000654087               0.001896806               0.001242719               0.000000000               0.000000000               0.000000000               0.000000000              -0.000046235               0.004933302               0.000191169              -0.000633999               0.001855751               0.001221751               0.000000000               0.000000000               0.000000000               0.000000000              -0.000033546               0.004821305               0.000134234              -0.000615241               0.001812166               0.001196925               0.000000000               0.000000000               0.000000000               0.000000000              -0.000029284               0.004702089               0.000088133              -0.000598741               0.001766928               0.001168187               0.000000000               0.000000000               0.000000000               0.000000000              -0.000032191               0.004586921               0.000050617              -0.000585435               0.001724104               0.001138668               0.000000000               0.000000000               0.000000000               0.000000000              -0.000041100               0.004484445               0.000020983              -0.000575967               0.001686789               0.001110822               0.000000000               0.000000000               0.000000000               0.000000000              -0.000052703               0.004390131               0.000001141              -0.000568529               0.001652872               0.001084343               0.000000000               0.000000000               0.000000000               0.000000000              -0.000058640               0.004301139              -0.000005664              -0.000559631               0.001620242               0.001060611               0.000000000               0.000000000               0.000000000               0.000000000              -0.000057590               0.004253369              -0.000006469              -0.000553266               0.001602197               0.001048932               0.000000000               0.000000000               0.000000000               0.000000000               0.001178011               0.003257466               0.001871581               0.000034568               0.001074288               0.001108855               0.000000000               0.000000000               0.000000000               0.000000000               0.000495548               0.003945342               0.001704794              -0.000307338               0.001417546               0.001110208               0.000000000               0.000000000               0.000000000               0.000000000              -0.000118538               0.004797416               0.001411131              -0.000644128               0.001813832               0.001169703               0.000000000               0.000000000               0.000000000               0.000000000              -0.000245492               0.005050875               0.001118280              -0.000723418               0.001924747               0.001201330               0.000000000               0.000000000               0.000000000               0.000000000              -0.000229492               0.005101537               0.000890402              -0.000723750               0.001941745               0.001217995               0.000000000               0.000000000               0.000000000               0.000000000              -0.000182379               0.005087912               0.000716046              -0.000704380               0.001930747               0.001226367               0.000000000               0.000000000               0.000000000               0.000000000              -0.000139165               0.005044533               0.000582925              -0.000682752               0.001909078               0.001226326               0.000000000               0.000000000               0.000000000               0.000000000              -0.000099688               0.004978326               0.000474223              -0.000659672               0.001879316               0.001219644               0.000000000               0.000000000               0.000000000               0.000000000              -0.000070751               0.004899853               0.000381609              -0.000639012               0.001846272               0.001207260               0.000000000               0.000000000               0.000000000               0.000000000              -0.000054744               0.004812704               0.000301645              -0.000622115               0.001811590               0.001189475               0.000000000               0.000000000               0.000000000               0.000000000              -0.000044149               0.004717555               0.000230570              -0.000606249               0.001774586               0.001168337               0.000000000               0.000000000               0.000000000               0.000000000              -0.000042189               0.004608342               0.000166954              -0.000591862               0.001733386               0.001141524               0.000000000               0.000000000               0.000000000               0.000000000              -0.000049681               0.004499729               0.000109386              -0.000581095               0.001693593               0.001112498               0.000000000               0.000000000               0.000000000               0.000000000              -0.000065967               0.004399974               0.000060270              -0.000574733               0.001658221               0.001083488               0.000000000               0.000000000               0.000000000               0.000000000              -0.000090594               0.004305222               0.000025259              -0.000572124               0.001625768               0.001053643               0.000000000               0.000000000               0.000000000               0.000000000              -0.000118116               0.004213729               0.000006202              -0.000571008               0.001594898               0.001023890               0.000000000               0.000000000               0.000000000               0.000000000              -0.000130342               0.004167447              -0.000000031              -0.000569808               0.001579071               0.001009263               0.000000000               0.000000000               0.000000000               0.000000000               0.000764234               0.002295068               0.001459963              -0.000000298               0.000765114               0.000764815               0.000000000               0.000000000               0.000000000               0.000000000               0.000373226               0.003112655               0.001575152              -0.000249123               0.001120582               0.000871459               0.000000000               0.000000000               0.000000000               0.000000000              -0.000088404               0.004089881               0.001551598              -0.000544386               0.001544742               0.001000355               0.000000000               0.000000000               0.000000000               0.000000000              -0.000202381               0.004506940               0.001337697              -0.000639260               0.001715385               0.001076125               0.000000000               0.000000000               0.000000000               0.000000000              -0.000196910               0.004690334               0.001116190              -0.000660132               0.001783473               0.001123341               0.000000000               0.000000000               0.000000000               0.000000000              -0.000156888               0.004771846               0.000925817              -0.000655312               0.001809037               0.001153724               0.000000000               0.000000000               0.000000000               0.000000000              -0.000117871               0.004801718               0.000772145              -0.000644415               0.001815362               0.001170947               0.000000000               0.000000000               0.000000000               0.000000000              -0.000085380               0.004794195               0.000644046              -0.000631291               0.001808479               0.001177188               0.000000000               0.000000000               0.000000000               0.000000000              -0.000056116               0.004755799               0.000535957              -0.000615517               0.001790423               0.001174906               0.000000000               0.000000000               0.000000000               0.000000000              -0.000038562               0.004698311               0.000445073              -0.000601748               0.001766671               0.001164923               0.000000000               0.000000000               0.000000000               0.000000000              -0.000027791               0.004628265               0.000365021              -0.000588953               0.001739057               0.001150104               0.000000000               0.000000000               0.000000000               0.000000000              -0.000024461               0.004544996               0.000287826              -0.000577296               0.001707415               0.001130120               0.000000000               0.000000000               0.000000000               0.000000000              -0.000033173               0.004455195               0.000212452              -0.000569338               0.001674830               0.001105492               0.000000000               0.000000000               0.000000000               0.000000000              -0.000056174               0.004365642               0.000142043              -0.000566769               0.001644123               0.001077354               0.000000000               0.000000000               0.000000000               0.000000000              -0.000097098               0.004279380               0.000080542              -0.000571333               0.001616890               0.001045557               0.000000000               0.000000000               0.000000000               0.000000000              -0.000155691               0.004198829               0.000033433              -0.000583236               0.001594008               0.001010772               0.000000000               0.000000000               0.000000000               0.000000000              -0.000199037               0.004153247               0.000009428              -0.000593793               0.001582333               0.000988540               0.000000000               0.000000000               0.000000000               0.000000000               0.000226889               0.001471797               0.001041818              -0.000098892               0.000523557               0.000424665               0.000000000               0.000000000               0.000000000               0.000000000               0.000190060               0.002321469               0.001378075              -0.000218912               0.000846785               0.000627873               0.000000000               0.000000000               0.000000000               0.000000000              -0.000033470               0.003309010               0.001577763              -0.000426178               0.001245051               0.000818873               0.000000000               0.000000000               0.000000000               0.000000000              -0.000093524               0.003844312               0.001461519              -0.000515610               0.001453294               0.000937684               0.000000000               0.000000000               0.000000000               0.000000000              -0.000089981               0.004148438               0.001275332              -0.000552297               0.001566897               0.001014600               0.000000000               0.000000000               0.000000000               0.000000000              -0.000062214               0.004333615               0.001089910              -0.000565031               0.001632867               0.001067836               0.000000000               0.000000000               0.000000000               0.000000000              -0.000036553               0.004449713               0.000928240              -0.000569921               0.001673196               0.001103276               0.000000000               0.000000000               0.000000000               0.000000000              -0.000017570               0.004512595               0.000792301              -0.000570662               0.001694404               0.001123742               0.000000000               0.000000000               0.000000000               0.000000000               0.000002883               0.004531501               0.000677123              -0.000565355               0.001698937               0.001133581               0.000000000               0.000000000               0.000000000               0.000000000               0.000018930               0.004517096               0.000580442              -0.000557537               0.001691529               0.001133992               0.000000000               0.000000000               0.000000000               0.000000000               0.000027504               0.004483768               0.000495876              -0.000550156               0.001677960               0.001127804               0.000000000               0.000000000               0.000000000               0.000000000               0.000031319               0.004441541               0.000411620              -0.000543447               0.001661648               0.001118201               0.000000000               0.000000000               0.000000000               0.000000000               0.000024858               0.004389210               0.000325025              -0.000539328               0.001642831               0.001103503               0.000000000               0.000000000               0.000000000               0.000000000               0.000001333               0.004326898               0.000238324              -0.000540361               0.001622405               0.001082044               0.000000000               0.000000000               0.000000000               0.000000000              -0.000044831               0.004258242               0.000152274              -0.000549091               0.001602430               0.001053339               0.000000000               0.000000000               0.000000000               0.000000000              -0.000120120               0.004189959               0.000072439              -0.000568788               0.001586235               0.001017447               0.000000000               0.000000000               0.000000000               0.000000000              -0.000186439               0.004143091               0.000027093              -0.000587800               0.001576950               0.000989150               0.000000000               0.000000000               0.000000000               0.000000000              -0.000382816               0.000816405               0.000659886              -0.000245607               0.000354001               0.000108394               0.000000000               0.000000000               0.000000000               0.000000000              -0.000035890               0.001603694               0.001129942              -0.000213921               0.000605865               0.000391945               0.000000000               0.000000000               0.000000000               0.000000000               0.000033136               0.002509470               0.001478786              -0.000301259               0.000936900               0.000635642               0.000000000               0.000000000               0.000000000               0.000000000               0.000063486               0.003109821               0.001452030              -0.000364921               0.001158236               0.000793315               0.000000000               0.000000000               0.000000000               0.000000000               0.000081788               0.003513025               0.001315488              -0.000408458               0.001307149               0.000898691               0.000000000               0.000000000               0.000000000               0.000000000               0.000099271               0.003796282               0.001154755              -0.000437308               0.001411184               0.000973875               0.000000000               0.000000000               0.000000000               0.000000000               0.000111187               0.003999707               0.001003938              -0.000458268               0.001485978               0.001027711               0.000000000               0.000000000               0.000000000               0.000000000               0.000117402               0.004138213               0.000876281              -0.000473250               0.001537140               0.001063890               0.000000000               0.000000000               0.000000000               0.000000000               0.000124597               0.004225607               0.000767240              -0.000481476               0.001569014               0.001087538               0.000000000               0.000000000               0.000000000               0.000000000               0.000131543               0.004271484               0.000672362              -0.000484606               0.001585349               0.001100743               0.000000000               0.000000000               0.000000000               0.000000000               0.000132610               0.004289095               0.000588939              -0.000486407               0.001591820               0.001105413               0.000000000               0.000000000               0.000000000               0.000000000               0.000132365               0.004295379               0.000505413              -0.000487284               0.001594207               0.001106923               0.000000000               0.000000000               0.000000000               0.000000000               0.000130256               0.004288453               0.000416496              -0.000487210               0.001591873               0.001104664               0.000000000               0.000000000               0.000000000               0.000000000               0.000117370               0.004263418               0.000323083              -0.000488912               0.001584096               0.001095184               0.000000000               0.000000000               0.000000000               0.000000000               0.000085441               0.004223524               0.000221349              -0.000495899               0.001573127               0.001077228               0.000000000               0.000000000               0.000000000               0.000000000               0.000023682               0.004174936               0.000112605              -0.000512985               0.001562626               0.001049641               0.000000000               0.000000000               0.000000000               0.000000000              -0.000038090               0.004136603               0.000050754              -0.000531358               0.001555973               0.001024615               0.000000000               0.000000000               0.000000000               0.000000000              -0.000988646               0.000348274               0.000355087              -0.000414276               0.000254181              -0.000160095               0.000000000               0.000000000               0.000000000               0.000000000              -0.000277358               0.001004621               0.000849566              -0.000229587               0.000411399               0.000181811               0.000000000               0.000000000               0.000000000               0.000000000               0.000096071               0.001766284               0.001252182              -0.000184760               0.000650341               0.000465582               0.000000000               0.000000000               0.000000000               0.000000000               0.000235199               0.002385236               0.001288993              -0.000209956               0.000865055               0.000655099               0.000000000               0.000000000               0.000000000               0.000000000               0.000285608               0.002858612               0.001202359              -0.000250224               0.001036269               0.000786045               0.000000000               0.000000000               0.000000000               0.000000000               0.000303382               0.003219311               0.001078425              -0.000288646               0.001169308               0.000880662               0.000000000               0.000000000               0.000000000               0.000000000               0.000309079               0.003498318               0.000954244              -0.000321385               0.001273222               0.000951837               0.000000000               0.000000000               0.000000000               0.000000000               0.000305480               0.003710579               0.000847707              -0.000349267               0.001353270               0.001004002               0.000000000               0.000000000               0.000000000               0.000000000               0.000298561               0.003867357               0.000756051              -0.000371459               0.001412925               0.001041467               0.000000000               0.000000000               0.000000000               0.000000000               0.000293407               0.003978432               0.000672633              -0.000387276               0.001455223               0.001067947               0.000000000               0.000000000               0.000000000               0.000000000               0.000287178               0.004052548               0.000597459              -0.000398876               0.001483795               0.001084919               0.000000000               0.000000000               0.000000000               0.000000000               0.000282276               0.004105120               0.000524352              -0.000407286               0.001504121               0.001096836               0.000000000               0.000000000               0.000000000               0.000000000               0.000283284               0.004145904               0.000446004              -0.000412005               0.001519289               0.001107284               0.000000000               0.000000000               0.000000000               0.000000000               0.000283996               0.004165733               0.000358626              -0.000414217               0.001526636               0.001112419               0.000000000               0.000000000               0.000000000               0.000000000               0.000277075               0.004162234               0.000257381              -0.000416375               0.001526189               0.001109814               0.000000000               0.000000000               0.000000000               0.000000000               0.000258514               0.004147878               0.000137660              -0.000421541               0.001523126               0.001101585               0.000000000               0.000000000               0.000000000               0.000000000               0.000233900               0.004132656               0.000069445              -0.000428868               0.001520494               0.001091626               0.000000000               0.000000000               0.000000000               0.000000000              -0.001506191               0.000052073               0.000151717              -0.000571330               0.000207800              -0.000363530               0.000000000               0.000000000               0.000000000               0.000000000              -0.000498703               0.000561528               0.000557369              -0.000257205               0.000272908               0.000015704               0.000000000               0.000000000               0.000000000               0.000000000               0.000142355               0.001166790               0.000907591              -0.000092466               0.000419747               0.000327281               0.000000000               0.000000000               0.000000000               0.000000000               0.000389637               0.001766436               0.000971777              -0.000074691               0.000613703               0.000539011               0.000000000               0.000000000               0.000000000               0.000000000               0.000480395               0.002275075               0.000926725              -0.000104237               0.000793096               0.000688859               0.000000000               0.000000000               0.000000000               0.000000000               0.000507062               0.002687953               0.000844788              -0.000145846               0.000944591               0.000798744               0.000000000               0.000000000               0.000000000               0.000000000               0.000510217               0.003023489               0.000756526              -0.000186605               0.001070021               0.000883416               0.000000000               0.000000000               0.000000000               0.000000000               0.000500453               0.003294800               0.000677284              -0.000224180               0.001172982               0.000948802               0.000000000               0.000000000               0.000000000               0.000000000               0.000483153               0.003508717               0.000609791              -0.000257407               0.001255363               0.000997956               0.000000000               0.000000000               0.000000000               0.000000000               0.000466239               0.003676098               0.000548271              -0.000284672               0.001320244               0.001035572               0.000000000               0.000000000               0.000000000               0.000000000               0.000453536               0.003804576               0.000491628              -0.000305495               0.001370011               0.001064516               0.000000000               0.000000000               0.000000000               0.000000000               0.000446460               0.003906492               0.000436565              -0.000320888               0.001409114               0.001088225               0.000000000               0.000000000               0.000000000               0.000000000               0.000448557               0.003993036               0.000377195              -0.000330920               0.001441305               0.001110385               0.000000000               0.000000000               0.000000000               0.000000000               0.000461286               0.004059933               0.000309305              -0.000334509               0.001464800               0.001130292               0.000000000               0.000000000               0.000000000               0.000000000               0.000485827               0.004102156               0.000229055              -0.000330584               0.001477566               0.001146983               0.000000000               0.000000000               0.000000000               0.000000000               0.000523025               0.004121570               0.000126888              -0.000319061               0.001480197               0.001161136               0.000000000               0.000000000               0.000000000               0.000000000               0.000554264               0.004128062               0.000068826              -0.000308158               0.001478726               0.001170568               0.000000000               0.000000000               0.000000000               0.000000000              -0.001852407              -0.000097040               0.000043674              -0.000682522               0.000195159              -0.000487363               0.000000000               0.000000000               0.000000000               0.000000000              -0.000660975               0.000299160               0.000271505              -0.000285260               0.000194805              -0.000090455               0.000000000               0.000000000               0.000000000               0.000000000               0.000167985               0.000782642               0.000475912              -0.000034837               0.000272490               0.000237654               0.000000000               0.000000000               0.000000000               0.000000000               0.000499571               0.001347742               0.000523646               0.000018871               0.000442952               0.000461823               0.000000000               0.000000000               0.000000000               0.000000000               0.000624316               0.001866182               0.000506585               0.000000845               0.000621772               0.000622618               0.000000000               0.000000000               0.000000000               0.000000000               0.000662423               0.002308382               0.000465997              -0.000040139               0.000782833               0.000742693               0.000000000               0.000000000               0.000000000               0.000000000               0.000662786               0.002674298               0.000420256              -0.000085743               0.000920005               0.000834262               0.000000000               0.000000000               0.000000000               0.000000000               0.000648366               0.002980383               0.000378155              -0.000129411               0.001036588               0.000907177               0.000000000               0.000000000               0.000000000               0.000000000               0.000624770               0.003236359               0.000341640              -0.000170256               0.001135527               0.000965272               0.000000000               0.000000000               0.000000000               0.000000000               0.000597820               0.003446955               0.000308539              -0.000206686               0.001217869               0.001011182               0.000000000               0.000000000               0.000000000               0.000000000               0.000574695               0.003617719               0.000277904              -0.000236704               0.001284796               0.001048092               0.000000000               0.000000000               0.000000000               0.000000000               0.000561780               0.003757991               0.000247261              -0.000259081               0.001339012               0.001079931               0.000000000               0.000000000               0.000000000               0.000000000               0.000566697               0.003878684               0.000214308              -0.000272324               0.001383656               0.001111333               0.000000000               0.000000000               0.000000000               0.000000000               0.000594084               0.003978292               0.000176919              -0.000274504               0.001417585               0.001143081               0.000000000               0.000000000               0.000000000               0.000000000               0.000648947               0.004054328               0.000132391              -0.000263435               0.001439241               0.001175806               0.000000000               0.000000000               0.000000000               0.000000000               0.000736772               0.004101758               0.000074477              -0.000236430               0.001446049               0.001209619               0.000000000               0.000000000               0.000000000               0.000000000               0.000817485               0.004125869               0.000042442              -0.000209176               0.001445001               0.001235825               0.000000000               0.000000000               0.000000000               0.000000000              -0.001973486              -0.000136383              -0.000000000              -0.000723009               0.000195541              -0.000527468               0.000000000               0.000000000               0.000000000               0.000000000              -0.000722330               0.000215781              -0.000000000              -0.000297846               0.000171208              -0.000126638               0.000000000               0.000000000               0.000000000               0.000000000               0.000175807               0.000650928              -0.000000000              -0.000015439               0.000222120               0.000206681               0.000000000               0.000000000               0.000000000               0.000000000               0.000539511               0.001197955              -0.000000000               0.000052572               0.000381790               0.000434362               0.000000000               0.000000000               0.000000000               0.000000000               0.000677921               0.001716482               0.000000000               0.000039660               0.000558935               0.000598595               0.000000000               0.000000000               0.000000000               0.000000000               0.000721046               0.002168885              -0.000000000              -0.000000719               0.000723194               0.000722475               0.000000000               0.000000000               0.000000000               0.000000000               0.000722851               0.002547160              -0.000000000              -0.000047326               0.000864820               0.000817494               0.000000000               0.000000000               0.000000000               0.000000000               0.000705953               0.002864212               0.000000000              -0.000093294               0.000985826               0.000892532               0.000000000               0.000000000               0.000000000               0.000000000               0.000677528               0.003134194              -0.000000000              -0.000137701               0.001090621               0.000952920               0.000000000               0.000000000               0.000000000               0.000000000               0.000645182               0.003359828              -0.000000000              -0.000178035               0.001179277               0.001001242               0.000000000               0.000000000               0.000000000               0.000000000               0.000616471               0.003546926               0.000000000              -0.000212189               0.001253027               0.001040838               0.000000000               0.000000000               0.000000000               0.000000000               0.000601326               0.003704301              -0.000000000              -0.000237540               0.001313935               0.001076395               0.000000000               0.000000000               0.000000000               0.000000000               0.000608215               0.003835287              -0.000000000              -0.000251330               0.001362193               0.001110863               0.000000000               0.000000000               0.000000000               0.000000000               0.000642890               0.003943704               0.000000000              -0.000251879               0.001398514               0.001146636               0.000000000               0.000000000               0.000000000               0.000000000               0.000711618               0.004032186               0.000000000              -0.000237166               0.001423104               0.001185938               0.000000000               0.000000000               0.000000000               0.000000000               0.000819817               0.004090498               0.000000000              -0.000203881               0.001431446               0.001227566               0.000000000               0.000000000               0.000000000               0.000000000               0.000918464               0.004121332              -0.000000000              -0.000170742               0.001430678               0.001259935               0.000000000               0.000000000               0.000000000               0.000000000               0.001128009               0.012635638               0.000000000              -0.001156449               0.004597320               0.003440872               0.000000000               0.000000000               0.000000000               0.000000000               0.001210110               0.010258826              -0.000000000              -0.000828560               0.003695761               0.002867201               0.000000000               0.000000000               0.000000000               0.000000000               0.001665379               0.008356920               0.000000000              -0.000420097               0.002925645               0.002505548               0.000000000               0.000000000               0.000000000               0.000000000               0.001702519               0.007317912               0.000000000              -0.000276294               0.002531377               0.002255084               0.000000000               0.000000000               0.000000000               0.000000000               0.001596409               0.006706646              -0.000000000              -0.000239677               0.002315419               0.002075742               0.000000000               0.000000000               0.000000000               0.000000000               0.001446716               0.006319763               0.000000000              -0.000247451               0.002189050               0.001941599               0.000000000               0.000000000               0.000000000               0.000000000               0.001294299               0.006060777               0.000000000              -0.000272234               0.002110984               0.001838749               0.000000000               0.000000000               0.000000000               0.000000000               0.001144955               0.005880881               0.000000000              -0.000305751               0.002062191               0.001756440               0.000000000               0.000000000               0.000000000               0.000000000               0.000994392               0.005750050              -0.000000000              -0.000345858               0.002031950               0.001686092               0.000000000               0.000000000               0.000000000               0.000000000               0.000845392               0.005647528              -0.000000000              -0.000388918               0.002012130               0.001623212               0.000000000               0.000000000               0.000000000               0.000000000               0.000706660               0.005564617              -0.000000000              -0.000430578               0.001998380               0.001567801               0.000000000               0.000000000               0.000000000               0.000000000               0.000578467               0.005496655              -0.000000000              -0.000470156               0.001988918               0.001518763               0.000000000               0.000000000               0.000000000               0.000000000               0.000448759               0.005436137              -0.000000000              -0.000511231               0.001982438               0.001471207               0.000000000               0.000000000               0.000000000               0.000000000               0.000318773               0.005374694               0.000000000              -0.000552296               0.001975645               0.001423350               0.000000000               0.000000000               0.000000000               0.000000000               0.000198148               0.005304522               0.000000000              -0.000588758               0.001964409               0.001375651               0.000000000               0.000000000               0.000000000               0.000000000               0.000092913               0.005212412              -0.000000000              -0.000616707               0.001943022               0.001326315               0.000000000               0.000000000               0.000000000               0.000000000               0.000037748               0.005136209               0.000000000              -0.000627869               0.001921342               0.001293473               0.000000000               0.000000000               0.000000000               0.000000000               0.001180362               0.012397857              -0.000914213              -0.001107094               0.004501609               0.003394515               0.000000000               0.000000000               0.000000000               0.000000000               0.001209237               0.010100554              -0.000540488              -0.000809103               0.003636519               0.002827415               0.000000000               0.000000000               0.000000000               0.000000000               0.001607540               0.008279639              -0.000161318              -0.000432126               0.002903894               0.002471768               0.000000000               0.000000000               0.000000000               0.000000000               0.001622462               0.007281088               0.000008408              -0.000301712               0.002527576               0.002225864               0.000000000               0.000000000               0.000000000               0.000000000               0.001510248               0.006688079               0.000084546              -0.000269666               0.002319226               0.002049560               0.000000000               0.000000000               0.000000000               0.000000000               0.001363015               0.006308241               0.000116392              -0.000277399               0.002195192               0.001917793               0.000000000               0.000000000               0.000000000               0.000000000               0.001213436               0.006050206               0.000129182              -0.000301236               0.002117127               0.001815891               0.000000000               0.000000000               0.000000000               0.000000000               0.001067695               0.005868903               0.000133550              -0.000333226               0.002067357               0.001734131               0.000000000               0.000000000               0.000000000               0.000000000               0.000923260               0.005736443               0.000132102              -0.000370832               0.002035739               0.001664907               0.000000000               0.000000000               0.000000000               0.000000000               0.000782507               0.005634899               0.000126188              -0.000410921               0.002015255               0.001604333               0.000000000               0.000000000               0.000000000               0.000000000               0.000651507               0.005553040               0.000119454              -0.000449814               0.002000933               0.001551119               0.000000000               0.000000000               0.000000000               0.000000000               0.000528237               0.005483972               0.000113983              -0.000487406               0.001990441               0.001503035               0.000000000               0.000000000               0.000000000               0.000000000               0.000406974               0.005421334               0.000107179              -0.000525050               0.001982110               0.001457060               0.000000000               0.000000000               0.000000000               0.000000000               0.000289925               0.005358207               0.000096164              -0.000561053               0.001973069               0.001412016               0.000000000               0.000000000               0.000000000               0.000000000               0.000181674               0.005287698               0.000077665              -0.000592833               0.001960159               0.001367326               0.000000000               0.000000000               0.000000000               0.000000000               0.000086023               0.005202403               0.000046124              -0.000618040               0.001940130               0.001322090               0.000000000               0.000000000               0.000000000               0.000000000               0.000036174               0.005137740               0.000028118              -0.000628651               0.001922113               0.001293462               0.000000000               0.000000000               0.000000000               0.000000000               0.001328138               0.011721867              -0.001728120              -0.000967180               0.004229643               0.003262463               0.000000000               0.000000000               0.000000000               0.000000000               0.001209770               0.009648197              -0.001029554              -0.000752359               0.003466820               0.002714461               0.000000000               0.000000000               0.000000000               0.000000000               0.001445823               0.008052726              -0.000322799              -0.000464406               0.002839017               0.002374611               0.000000000               0.000000000               0.000000000               0.000000000               0.001399626               0.007164403              -0.000012286              -0.000370690               0.002511674               0.002140984               0.000000000               0.000000000               0.000000000               0.000000000               0.001275075               0.006622059               0.000125954              -0.000349604               0.002323865               0.001974262               0.000000000               0.000000000               0.000000000               0.000000000               0.001134325               0.006265312               0.000182844              -0.000357791               0.002207680               0.001849889               0.000000000               0.000000000               0.000000000               0.000000000               0.000995747               0.006016615               0.000204888              -0.000378671               0.002131742               0.001753071               0.000000000               0.000000000               0.000000000               0.000000000               0.000864435               0.005838690               0.000212668              -0.000405672               0.002081435               0.001675763               0.000000000               0.000000000               0.000000000               0.000000000               0.000738131               0.005707637               0.000210476              -0.000436655               0.002048078               0.001611424               0.000000000               0.000000000               0.000000000               0.000000000               0.000615096               0.005603312               0.000200855              -0.000469752               0.002024336               0.001554584               0.000000000               0.000000000               0.000000000               0.000000000               0.000500552               0.005518108               0.000189062              -0.000502055               0.002006703               0.001504648               0.000000000               0.000000000               0.000000000               0.000000000               0.000394501               0.005446067               0.000178667              -0.000532819               0.001992944               0.001460125               0.000000000               0.000000000               0.000000000               0.000000000               0.000295381               0.005380106               0.000165840              -0.000561744               0.001980599               0.001418855               0.000000000               0.000000000               0.000000000               0.000000000               0.000205473               0.005315467               0.000145117              -0.000587379               0.001967598               0.001380218               0.000000000               0.000000000               0.000000000               0.000000000               0.000127545               0.005249487               0.000113098              -0.000608355               0.001952597               0.001344241               0.000000000               0.000000000               0.000000000               0.000000000               0.000061790               0.005182525               0.000064624              -0.000624643               0.001935705               0.001311062               0.000000000               0.000000000               0.000000000               0.000000000               0.000028132               0.005139821               0.000037579              -0.000631926               0.001923899               0.001291972               0.000000000               0.000000000               0.000000000               0.000000000               0.001527780               0.010701353              -0.002354089              -0.000764751               0.003821998               0.003057247               0.000000000               0.000000000               0.000000000               0.000000000               0.001198726               0.008964268              -0.001418160              -0.000671010               0.003211730               0.002540719               0.000000000               0.000000000               0.000000000               0.000000000               0.001206224               0.007705540              -0.000477373              -0.000510857               0.002738773               0.002227916               0.000000000               0.000000000               0.000000000               0.000000000               0.001081849               0.006978053              -0.000075674              -0.000466562               0.002481515               0.002014953               0.000000000               0.000000000               0.000000000               0.000000000               0.000945228               0.006510561               0.000100301              -0.000459359               0.002323285               0.001863926               0.000000000               0.000000000               0.000000000               0.000000000               0.000818862               0.006189174               0.000173241              -0.000466572               0.002218561               0.001751989               0.000000000               0.000000000               0.000000000               0.000000000               0.000705101               0.005962927               0.000201575              -0.000480952               0.002147940               0.001666988               0.000000000               0.000000000               0.000000000               0.000000000               0.000600133               0.005796636               0.000213821              -0.000499528               0.002098702               0.001599174               0.000000000               0.000000000               0.000000000               0.000000000               0.000500884               0.005666052               0.000213804              -0.000520424               0.002062140               0.001541716               0.000000000               0.000000000               0.000000000               0.000000000               0.000407788               0.005558083               0.000205313              -0.000541838               0.002033289               0.001491450               0.000000000               0.000000000               0.000000000               0.000000000               0.000321944               0.005469597               0.000196367              -0.000562969               0.002010837               0.001447868               0.000000000               0.000000000               0.000000000               0.000000000               0.000243138               0.005394074               0.000188007              -0.000583081               0.001992367               0.001409286               0.000000000               0.000000000               0.000000000               0.000000000               0.000174201               0.005327315               0.000175074              -0.000600587               0.001975950               0.001375362               0.000000000               0.000000000               0.000000000               0.000000000               0.000116529               0.005265371               0.000151689              -0.000614471               0.001959930               0.001345458               0.000000000               0.000000000               0.000000000               0.000000000               0.000069644               0.005208214               0.000116581              -0.000624909               0.001944357               0.001319448               0.000000000               0.000000000               0.000000000               0.000000000               0.000031953               0.005161276               0.000065893              -0.000633176               0.001931467               0.001298291               0.000000000               0.000000000               0.000000000               0.000000000               0.000013963               0.005138441               0.000036826              -0.000637067               0.001925152               0.001288085               0.000000000               0.000000000               0.000000000               0.000000000               0.001711037               0.009456943              -0.002739128              -0.000540480               0.003332442               0.002791962               0.000000000               0.000000000               0.000000000               0.000000000               0.001151840               0.008135685              -0.001677661              -0.000585020               0.002906875               0.002321854               0.000000000               0.000000000               0.000000000               0.000000000               0.000913499               0.007282502              -0.000619423              -0.000567749               0.002616726               0.002048977               0.000000000               0.000000000               0.000000000               0.000000000               0.000722644               0.006739206              -0.000182990              -0.000571408               0.002436849               0.001865441               0.000000000               0.000000000               0.000000000               0.000000000               0.000587829               0.006359642               0.000005096              -0.000574518               0.002311366               0.001736848               0.000000000               0.000000000               0.000000000               0.000000000               0.000487518               0.006082885               0.000088795              -0.000577540               0.002220121               0.001642581               0.000000000               0.000000000               0.000000000               0.000000000               0.000409088               0.005882874               0.000126888              -0.000581950               0.002154922               0.001572972               0.000000000               0.000000000               0.000000000               0.000000000               0.000340990               0.005725501               0.000145385              -0.000587815               0.002104419               0.001516605               0.000000000               0.000000000               0.000000000               0.000000000               0.000275516               0.005592314               0.000153246              -0.000595719               0.002062659               0.001466940               0.000000000               0.000000000               0.000000000               0.000000000               0.000217491               0.005485046               0.000153824              -0.000604070               0.002029687               0.001425617               0.000000000               0.000000000               0.000000000               0.000000000               0.000166686               0.005396160               0.000152189              -0.000612011               0.002002706               0.001390694               0.000000000               0.000000000               0.000000000               0.000000000               0.000123518               0.005320887               0.000149176              -0.000618790               0.001979875               0.001361084               0.000000000               0.000000000               0.000000000               0.000000000               0.000088439               0.005253460               0.000139612              -0.000623516               0.001958975               0.001335458               0.000000000               0.000000000               0.000000000               0.000000000               0.000059450               0.005190197               0.000118538              -0.000626479               0.001938875               0.001312396               0.000000000               0.000000000               0.000000000               0.000000000               0.000036831               0.005137285               0.000088015              -0.000628347               0.001921860               0.001293513               0.000000000               0.000000000               0.000000000               0.000000000               0.000016687               0.005099497               0.000047760              -0.000631178               0.001910208               0.001279030               0.000000000               0.000000000               0.000000000               0.000000000               0.000006979               0.005086100               0.000024882              -0.000633144               0.001906398               0.001273254               0.000000000               0.000000000               0.000000000               0.000000000               0.001809591               0.008101419              -0.002883421              -0.000334083               0.002811806               0.002477723               0.000000000               0.000000000               0.000000000               0.000000000               0.001056157               0.007243883              -0.001818914              -0.000509427               0.002584412               0.002074985               0.000000000               0.000000000               0.000000000               0.000000000               0.000601322               0.006816419              -0.000759788              -0.000626555               0.002480969               0.001854413               0.000000000               0.000000000               0.000000000               0.000000000               0.000375692               0.006454690              -0.000331918              -0.000665950               0.002373525               0.001707575               0.000000000               0.000000000               0.000000000               0.000000000               0.000264719               0.006166041              -0.000143147              -0.000671484               0.002279155               0.001607671               0.000000000               0.000000000               0.000000000               0.000000000               0.000203680               0.005940636              -0.000049177              -0.000666198               0.002202258               0.001536060               0.000000000               0.000000000               0.000000000               0.000000000               0.000162011               0.005761315               0.000001932              -0.000659409               0.002140222               0.001480814               0.000000000               0.000000000               0.000000000               0.000000000               0.000130473               0.005610652               0.000030828              -0.000652402               0.002087666               0.001435264               0.000000000               0.000000000               0.000000000               0.000000000               0.000102757               0.005483017               0.000051623              -0.000646841               0.002043268               0.001396426               0.000000000               0.000000000               0.000000000               0.000000000               0.000078635               0.005375179               0.000066014              -0.000642408               0.002005844               0.001363437               0.000000000               0.000000000               0.000000000               0.000000000               0.000058266               0.005283138               0.000075916              -0.000638541               0.001973875               0.001335334               0.000000000               0.000000000               0.000000000               0.000000000               0.000045327               0.005203010               0.000082063              -0.000633377               0.001945445               0.001312068               0.000000000               0.000000000               0.000000000               0.000000000               0.000038862               0.005127773               0.000077597              -0.000626397               0.001918040               0.001291643               0.000000000               0.000000000               0.000000000               0.000000000               0.000029732               0.005056363               0.000063737              -0.000620894               0.001892402               0.001271508               0.000000000               0.000000000               0.000000000               0.000000000               0.000018653               0.004995900               0.000045046              -0.000617491               0.001871114               0.001253623               0.000000000               0.000000000               0.000000000               0.000000000               0.000010037               0.004950533               0.000022437              -0.000615051               0.001855178               0.001240127               0.000000000               0.000000000               0.000000000               0.000000000               0.000003617               0.004926895               0.000012436              -0.000614504               0.001847116               0.001232612               0.000000000               0.000000000               0.000000000               0.000000000               0.001787613               0.006731162              -0.002821790              -0.000171043               0.002300712               0.002129668               0.000000000               0.000000000               0.000000000               0.000000000               0.000917128               0.006357100              -0.001868315              -0.000450715               0.002269250               0.001818535               0.000000000               0.000000000               0.000000000               0.000000000               0.000309275               0.006337827              -0.000905140              -0.000676249               0.002338004               0.001661755               0.000000000               0.000000000               0.000000000               0.000000000               0.000089382               0.006142399              -0.000507464              -0.000734280               0.002292206               0.001557926               0.000000000               0.000000000               0.000000000               0.000000000               0.000018756               0.005937017              -0.000316659              -0.000735092               0.002224017               0.001488925               0.000000000               0.000000000               0.000000000               0.000000000              -0.000001944               0.005754691              -0.000210156              -0.000720064               0.002158232               0.001438169               0.000000000               0.000000000               0.000000000               0.000000000              -0.000009183               0.005596289              -0.000143832              -0.000702978               0.002099737               0.001396759               0.000000000               0.000000000               0.000000000               0.000000000              -0.000007338               0.005459411              -0.000099433              -0.000685176               0.002048178               0.001363001               0.000000000               0.000000000               0.000000000               0.000000000              -0.000005328               0.005336913              -0.000063157              -0.000669110               0.002001990               0.001332880               0.000000000               0.000000000               0.000000000               0.000000000              -0.000004506               0.005227267              -0.000031284              -0.000655097               0.001960771               0.001305674               0.000000000               0.000000000               0.000000000               0.000000000              -0.000002842               0.005131384              -0.000005474              -0.000642487               0.001924607               0.001282119               0.000000000               0.000000000               0.000000000               0.000000000               0.000001553               0.005039933               0.000012499              -0.000629408               0.001889764               0.001260356               0.000000000               0.000000000               0.000000000               0.000000000               0.000005950               0.004950655               0.000019453              -0.000616599               0.001855735               0.001239136               0.000000000               0.000000000               0.000000000               0.000000000               0.000004390               0.004868107               0.000018600              -0.000606866               0.001824975               0.001218109               0.000000000               0.000000000               0.000000000               0.000000000               0.000001796               0.004796523               0.000016770              -0.000598890               0.001798455               0.001199565               0.000000000               0.000000000               0.000000000               0.000000000               0.000000547               0.004735941               0.000010374              -0.000591786               0.001775893               0.001184107               0.000000000               0.000000000               0.000000000               0.000000000              -0.000006780               0.004695842               0.000009198              -0.000589521               0.001761772               0.001172251               0.000000000               0.000000000               0.000000000               0.000000000               0.001654112               0.005435757              -0.002591007              -0.000059181               0.001831627               0.001772446               0.000000000               0.000000000               0.000000000               0.000000000               0.000747226               0.005529797              -0.001844636              -0.000411016               0.001980252               0.001569236               0.000000000               0.000000000               0.000000000               0.000000000               0.000068905               0.005867297              -0.001054063              -0.000707571               0.002191603               0.001484032               0.000000000               0.000000000               0.000000000               0.000000000              -0.000111127               0.005811892              -0.000689715              -0.000768157               0.002193330               0.001425173               0.000000000               0.000000000               0.000000000               0.000000000              -0.000135248               0.005675079              -0.000490823              -0.000760101               0.002145041               0.001384940               0.000000000               0.000000000               0.000000000               0.000000000              -0.000121265               0.005531680              -0.000367140              -0.000736933               0.002089519               0.001352587               0.000000000               0.000000000               0.000000000               0.000000000              -0.000099145               0.005399607              -0.000281317              -0.000712129               0.002037227               0.001325099               0.000000000               0.000000000               0.000000000               0.000000000              -0.000075750               0.005277277              -0.000218183              -0.000688064               0.001988429               0.001300365               0.000000000               0.000000000               0.000000000               0.000000000              -0.000057610               0.005160705              -0.000162722              -0.000666690               0.001942448               0.001275758               0.000000000               0.000000000               0.000000000               0.000000000              -0.000041736               0.005054566              -0.000111070              -0.000647470               0.001900662               0.001253192               0.000000000               0.000000000               0.000000000               0.000000000              -0.000030494               0.004950674              -0.000068357              -0.000630268               0.001860298               0.001230030               0.000000000               0.000000000               0.000000000               0.000000000              -0.000022771               0.004845445              -0.000037453              -0.000614218               0.001819872               0.001205653               0.000000000               0.000000000               0.000000000               0.000000000              -0.000017809               0.004743345              -0.000016465              -0.000599595               0.001780964               0.001181369               0.000000000               0.000000000               0.000000000               0.000000000              -0.000019407               0.004650056              -0.000001774              -0.000588533               0.001746181               0.001157648               0.000000000               0.000000000               0.000000000               0.000000000              -0.000019907               0.004568188               0.000009223              -0.000578487               0.001715543               0.001137056               0.000000000               0.000000000               0.000000000               0.000000000              -0.000015109               0.004495196               0.000010534              -0.000567564               0.001687572               0.001120008               0.000000000               0.000000000               0.000000000               0.000000000              -0.000017032               0.004448886               0.000011342              -0.000562496               0.001670446               0.001107950               0.000000000               0.000000000               0.000000000               0.000000000               0.001454593               0.004316005              -0.002253237               0.000005968               0.001436663               0.001442632               0.000000000               0.000000000               0.000000000               0.000000000               0.000596720               0.004789283              -0.001784423              -0.000374891               0.001721375               0.001346484               0.000000000               0.000000000               0.000000000               0.000000000              -0.000083533               0.005427987              -0.001222786              -0.000709822               0.002045918               0.001336096               0.000000000               0.000000000               0.000000000               0.000000000              -0.000221605               0.005508610              -0.000886353              -0.000771677               0.002093410               0.001321734               0.000000000               0.000000000               0.000000000               0.000000000              -0.000210420               0.005443305              -0.000672252              -0.000759319               0.002067523               0.001308204               0.000000000               0.000000000               0.000000000               0.000000000              -0.000170700               0.005347265              -0.000525713              -0.000732419               0.002026543               0.001294124               0.000000000               0.000000000               0.000000000               0.000000000              -0.000130243               0.005246986              -0.000417360              -0.000704712               0.001983882               0.001279169               0.000000000               0.000000000               0.000000000               0.000000000              -0.000091275               0.005140869              -0.000331742              -0.000676835               0.001939217               0.001262382               0.000000000               0.000000000               0.000000000               0.000000000              -0.000065441               0.005036382              -0.000257443              -0.000654087               0.001896806               0.001242719               0.000000000               0.000000000               0.000000000               0.000000000              -0.000046235               0.004933302              -0.000191169              -0.000633999               0.001855751               0.001221751               0.000000000               0.000000000               0.000000000               0.000000000              -0.000033546               0.004821305              -0.000134234              -0.000615241               0.001812166               0.001196925               0.000000000               0.000000000               0.000000000               0.000000000              -0.000029284               0.004702089              -0.000088133              -0.000598741               0.001766928               0.001168187               0.000000000               0.000000000               0.000000000               0.000000000              -0.000032191               0.004586921              -0.000050617              -0.000585435               0.001724104               0.001138668               0.000000000               0.000000000               0.000000000               0.000000000              -0.000041100               0.004484445              -0.000020983              -0.000575967               0.001686789               0.001110822               0.000000000               0.000000000               0.000000000               0.000000000              -0.000052703               0.004390131              -0.000001141              -0.000568529               0.001652872               0.001084343               0.000000000               0.000000000               0.000000000               0.000000000              -0.000058640               0.004301139               0.000005664              -0.000559631               0.001620242               0.001060611               0.000000000               0.000000000               0.000000000               0.000000000              -0.000057590               0.004253369               0.000006469              -0.000553266               0.001602197               0.001048932               0.000000000               0.000000000               0.000000000               0.000000000               0.001178011               0.003257466              -0.001871581               0.000034568               0.001074288               0.001108855               0.000000000               0.000000000               0.000000000               0.000000000               0.000495548               0.003945342              -0.001704794              -0.000307338               0.001417546               0.001110208               0.000000000               0.000000000               0.000000000               0.000000000              -0.000118538               0.004797416              -0.001411131              -0.000644128               0.001813832               0.001169703               0.000000000               0.000000000               0.000000000               0.000000000              -0.000245492               0.005050875              -0.001118280              -0.000723418               0.001924747               0.001201330               0.000000000               0.000000000               0.000000000               0.000000000              -0.000229492               0.005101537              -0.000890402              -0.000723750               0.001941745               0.001217995               0.000000000               0.000000000               0.000000000               0.000000000              -0.000182379               0.005087912              -0.000716046              -0.000704380               0.001930747               0.001226367               0.000000000               0.000000000               0.000000000               0.000000000              -0.000139165               0.005044533              -0.000582925              -0.000682752               0.001909078               0.001226326               0.000000000               0.000000000               0.000000000               0.000000000              -0.000099688               0.004978326              -0.000474223              -0.000659672               0.001879316               0.001219644               0.000000000               0.000000000               0.000000000               0.000000000              -0.000070751               0.004899853              -0.000381609              -0.000639012               0.001846272               0.001207260               0.000000000               0.000000000               0.000000000               0.000000000              -0.000054744               0.004812704              -0.000301645              -0.000622115               0.001811590               0.001189475               0.000000000               0.000000000               0.000000000               0.000000000              -0.000044149               0.004717555              -0.000230570              -0.000606249               0.001774586               0.001168337               0.000000000               0.000000000               0.000000000               0.000000000              -0.000042189               0.004608342              -0.000166954              -0.000591862               0.001733386               0.001141524               0.000000000               0.000000000               0.000000000               0.000000000              -0.000049681               0.004499729              -0.000109386              -0.000581095               0.001693593               0.001112498               0.000000000               0.000000000               0.000000000               0.000000000              -0.000065967               0.004399974              -0.000060270              -0.000574733               0.001658221               0.001083488               0.000000000               0.000000000               0.000000000               0.000000000              -0.000090594               0.004305222              -0.000025259              -0.000572124               0.001625768               0.001053643               0.000000000               0.000000000               0.000000000               0.000000000              -0.000118116               0.004213729              -0.000006202              -0.000571008               0.001594898               0.001023890               0.000000000               0.000000000               0.000000000               0.000000000              -0.000130342               0.004167447               0.000000031              -0.000569808               0.001579071               0.001009263               0.000000000               0.000000000               0.000000000               0.000000000               0.000764234               0.002295068              -0.001459963              -0.000000298               0.000765114               0.000764815               0.000000000               0.000000000               0.000000000               0.000000000               0.000373226               0.003112655              -0.001575152              -0.000249123               0.001120582               0.000871459               0.000000000               0.000000000               0.000000000               0.000000000              -0.000088404               0.004089881              -0.001551598              -0.000544386               0.001544742               0.001000355               0.000000000               0.000000000               0.000000000               0.000000000              -0.000202381               0.004506940              -0.001337697              -0.000639260               0.001715385               0.001076125               0.000000000               0.000000000               0.000000000               0.000000000              -0.000196910               0.004690334              -0.001116190              -0.000660132               0.001783473               0.001123341               0.000000000               0.000000000               0.000000000               0.000000000              -0.000156888               0.004771846              -0.000925817              -0.000655312               0.001809037               0.001153724               0.000000000               0.000000000               0.000000000               0.000000000              -0.000117871               0.004801718              -0.000772145              -0.000644415               0.001815362               0.001170947               0.000000000               0.000000000               0.000000000               0.000000000              -0.000085380               0.004794195              -0.000644046              -0.000631291               0.001808479               0.001177188               0.000000000               0.000000000               0.000000000               0.000000000              -0.000056116               0.004755799              -0.000535957              -0.000615517               0.001790423               0.001174906               0.000000000               0.000000000               0.000000000               0.000000000              -0.000038562               0.004698311              -0.000445073              -0.000601748               0.001766671               0.001164923               0.000000000               0.000000000               0.000000000               0.000000000              -0.000027791               0.004628265              -0.000365021              -0.000588953               0.001739057               0.001150104               0.000000000               0.000000000               0.000000000               0.000000000              -0.000024461               0.004544996              -0.000287826              -0.000577296               0.001707415               0.001130120               0.000000000               0.000000000               0.000000000               0.000000000              -0.000033173               0.004455195              -0.000212452              -0.000569338               0.001674830               0.001105492               0.000000000               0.000000000               0.000000000               0.000000000              -0.000056174               0.004365642              -0.000142043              -0.000566769               0.001644123               0.001077354               0.000000000               0.000000000               0.000000000               0.000000000              -0.000097098               0.004279380              -0.000080542              -0.000571333               0.001616890               0.001045557               0.000000000               0.000000000               0.000000000               0.000000000              -0.000155691               0.004198829              -0.000033433              -0.000583236               0.001594008               0.001010772               0.000000000               0.000000000               0.000000000               0.000000000              -0.000199037               0.004153247              -0.000009428              -0.000593793               0.001582333               0.000988540               0.000000000               0.000000000               0.000000000               0.000000000               0.000226889               0.001471797              -0.001041818              -0.000098892               0.000523557               0.000424665               0.000000000               0.000000000               0.000000000               0.000000000               0.000190060               0.002321469              -0.001378075              -0.000218912               0.000846785               0.000627873               0.000000000               0.000000000               0.000000000               0.000000000              -0.000033470               0.003309010              -0.001577763              -0.000426178               0.001245051               0.000818873               0.000000000               0.000000000               0.000000000               0.000000000              -0.000093524               0.003844312              -0.001461519              -0.000515610               0.001453294               0.000937684               0.000000000               0.000000000               0.000000000               0.000000000              -0.000089981               0.004148438              -0.001275332              -0.000552297               0.001566897               0.001014600               0.000000000               0.000000000               0.000000000               0.000000000              -0.000062214               0.004333615              -0.001089910              -0.000565031               0.001632867               0.001067836               0.000000000               0.000000000               0.000000000               0.000000000              -0.000036553               0.004449713              -0.000928240              -0.000569921               0.001673196               0.001103276               0.000000000               0.000000000               0.000000000               0.000000000              -0.000017570               0.004512595              -0.000792301              -0.000570662               0.001694404               0.001123742               0.000000000               0.000000000               0.000000000               0.000000000               0.000002883               0.004531501              -0.000677123              -0.000565355               0.001698937               0.001133581               0.000000000               0.000000000               0.000000000               0.000000000               0.000018930               0.004517096              -0.000580442              -0.000557537               0.001691529               0.001133992               0.000000000               0.000000000               0.000000000               0.000000000               0.000027504               0.004483768              -0.000495876              -0.000550156               0.001677960               0.001127804               0.000000000               0.000000000               0.000000000               0.000000000               0.000031319               0.004441541              -0.000411620              -0.000543447               0.001661648               0.001118201               0.000000000               0.000000000               0.000000000               0.000000000               0.000024858               0.004389210              -0.000325025              -0.000539328               0.001642831               0.001103503               0.000000000               0.000000000               0.000000000               0.000000000               0.000001333               0.004326898              -0.000238324              -0.000540361               0.001622405               0.001082044               0.000000000               0.000000000               0.000000000               0.000000000              -0.000044831               0.004258242              -0.000152274              -0.000549091               0.001602430               0.001053339               0.000000000               0.000000000               0.000000000               0.000000000              -0.000120120               0.004189959              -0.000072439              -0.000568788               0.001586235               0.001017447               0.000000000               0.000000000               0.000000000               0.000000000              -0.000186439               0.004143091              -0.000027093              -0.000587800               0.001576950               0.000989150               0.000000000               0.000000000               0.000000000               0.000000000              -0.000382816               0.000816405              -0.000659886              -0.000245607               0.000354001               0.000108394               0.000000000               0.000000000               0.000000000               0.000000000              -0.000035890               0.001603694              -0.001129942              -0.000213921               0.000605865               0.000391945               0.000000000               0.000000000               0.000000000               0.000000000               0.000033136               0.002509470              -0.001478786              -0.000301259               0.000936900               0.000635642               0.000000000               0.000000000               0.000000000               0.000000000               0.000063486               0.003109821              -0.001452030              -0.000364921               0.001158236               0.000793315               0.000000000               0.000000000               0.000000000               0.000000000               0.000081788               0.003513025              -0.001315488              -0.000408458               0.001307149               0.000898691               0.000000000               0.000000000               0.000000000               0.000000000               0.000099271               0.003796282              -0.001154755              -0.000437308               0.001411184               0.000973875               0.000000000               0.000000000               0.000000000               0.000000000               0.000111187               0.003999707              -0.001003938              -0.000458268               0.001485978               0.001027711               0.000000000               0.000000000               0.000000000               0.000000000               0.000117402               0.004138213              -0.000876281              -0.000473250               0.001537140               0.001063890               0.000000000               0.000000000               0.000000000               0.000000000               0.000124597               0.004225607              -0.000767240              -0.000481476               0.001569014               0.001087538               0.000000000               0.000000000               0.000000000               0.000000000               0.000131543               0.004271484              -0.000672362              -0.000484606               0.001585349               0.001100743               0.000000000               0.000000000               0.000000000               0.000000000               0.000132610               0.004289095              -0.000588939              -0.000486407               0.001591820               0.001105413               0.000000000               0.000000000               0.000000000               0.000000000               0.000132365               0.004295379              -0.000505413              -0.000487284               0.001594207               0.001106923               0.000000000               0.000000000               0.000000000               0.000000000               0.000130256               0.004288453              -0.000416496              -0.000487210               0.001591873               0.001104664               0.000000000               0.000000000               0.000000000               0.000000000               0.000117370               0.004263418              -0.000323083              -0.000488912               0.001584096               0.001095184               0.000000000               0.000000000               0.000000000               0.000000000               0.000085441               0.004223524              -0.000221349              -0.000495899               0.001573127               0.001077228               0.000000000               0.000000000               0.000000000               0.000000000               0.000023682               0.004174936              -0.000112605              -0.000512985               0.001562626               0.001049641               0.000000000               0.000000000               0.000000000               0.000000000              -0.000038090               0.004136603              -0.000050754              -0.000531358               0.001555973               0.001024615               0.000000000               0.000000000               0.000000000               0.000000000              -0.000988646               0.000348274              -0.000355087              -0.000414276               0.000254181              -0.000160095               0.000000000               0.000000000               0.000000000               0.000000000              -0.000277358               0.001004621              -0.000849566              -0.000229587               0.000411399               0.000181811               0.000000000               0.000000000               0.000000000               0.000000000               0.000096071               0.001766284              -0.001252182              -0.000184760               0.000650341               0.000465582               0.000000000               0.000000000               0.000000000               0.000000000               0.000235199               0.002385236              -0.001288993              -0.000209956               0.000865055               0.000655099               0.000000000               0.000000000               0.000000000               0.000000000               0.000285608               0.002858612              -0.001202359              -0.000250224               0.001036269               0.000786045               0.000000000               0.000000000               0.000000000               0.000000000               0.000303382               0.003219311              -0.001078425              -0.000288646               0.001169308               0.000880662               0.000000000               0.000000000               0.000000000               0.000000000               0.000309079               0.003498318              -0.000954244              -0.000321385               0.001273222               0.000951837               0.000000000               0.000000000               0.000000000               0.000000000               0.000305480               0.003710579              -0.000847707              -0.000349267               0.001353270               0.001004002               0.000000000               0.000000000               0.000000000               0.000000000               0.000298561               0.003867357              -0.000756051              -0.000371459               0.001412925               0.001041467               0.000000000               0.000000000               0.000000000               0.000000000               0.000293407               0.003978432              -0.000672633              -0.000387276               0.001455223               0.001067947               0.000000000               0.000000000               0.000000000               0.000000000               0.000287178               0.004052548              -0.000597459              -0.000398876               0.001483795               0.001084919               0.000000000               0.000000000               0.000000000               0.000000000               0.000282276               0.004105120              -0.000524352              -0.000407286               0.001504121               0.001096836               0.000000000               0.000000000               0.000000000               0.000000000               0.000283284               0.004145904              -0.000446004              -0.000412005               0.001519289               0.001107284               0.000000000               0.000000000               0.000000000               0.000000000               0.000283996               0.004165733              -0.000358626              -0.000414217               0.001526636               0.001112419               0.000000000               0.000000000               0.000000000               0.000000000               0.000277075               0.004162234              -0.000257381              -0.000416375               0.001526189               0.001109814               0.000000000               0.000000000               0.000000000               0.000000000               0.000258514               0.004147878              -0.000137660              -0.000421541               0.001523126               0.001101585               0.000000000               0.000000000               0.000000000               0.000000000               0.000233900               0.004132656              -0.000069445              -0.000428868               0.001520494               0.001091626               0.000000000               0.000000000               0.000000000               0.000000000              -0.001506191               0.000052073              -0.000151717              -0.000571330               0.000207800              -0.000363530               0.000000000               0.000000000               0.000000000               0.000000000              -0.000498703               0.000561528              -0.000557369              -0.000257205               0.000272908               0.000015704               0.000000000               0.000000000               0.000000000               0.000000000               0.000142355               0.001166790              -0.000907591              -0.000092466               0.000419747               0.000327281               0.000000000               0.000000000               0.000000000               0.000000000               0.000389637               0.001766436              -0.000971777              -0.000074691               0.000613703               0.000539011               0.000000000               0.000000000               0.000000000               0.000000000               0.000480395               0.002275075              -0.000926725              -0.000104237               0.000793096               0.000688859               0.000000000               0.000000000               0.000000000               0.000000000               0.000507062               0.002687953              -0.000844788              -0.000145846               0.000944591               0.000798744               0.000000000               0.000000000               0.000000000               0.000000000               0.000510217               0.003023489              -0.000756526              -0.000186605               0.001070021               0.000883416               0.000000000               0.000000000               0.000000000               0.000000000               0.000500453               0.003294800              -0.000677284              -0.000224180               0.001172982               0.000948802               0.000000000               0.000000000               0.000000000               0.000000000               0.000483153               0.003508717              -0.000609791              -0.000257407               0.001255363               0.000997956               0.000000000               0.000000000               0.000000000               0.000000000               0.000466239               0.003676098              -0.000548271              -0.000284672               0.001320244               0.001035572               0.000000000               0.000000000               0.000000000               0.000000000               0.000453536               0.003804576              -0.000491628              -0.000305495               0.001370011               0.001064516               0.000000000               0.000000000               0.000000000               0.000000000               0.000446460               0.003906492              -0.000436565              -0.000320888               0.001409114               0.001088225               0.000000000               0.000000000               0.000000000               0.000000000               0.000448557               0.003993036              -0.000377195              -0.000330920               0.001441305               0.001110385               0.000000000               0.000000000               0.000000000               0.000000000               0.000461286               0.004059933              -0.000309305              -0.000334509               0.001464800               0.001130292               0.000000000               0.000000000               0.000000000               0.000000000               0.000485827               0.004102156              -0.000229055              -0.000330584               0.001477566               0.001146983               0.000000000               0.000000000               0.000000000               0.000000000               0.000523025               0.004121570              -0.000126888              -0.000319061               0.001480197               0.001161136               0.000000000               0.000000000               0.000000000               0.000000000               0.000554264               0.004128062              -0.000068826              -0.000308158               0.001478726               0.001170568               0.000000000               0.000000000               0.000000000               0.000000000              -0.001852407              -0.000097040              -0.000043674              -0.000682522               0.000195159              -0.000487363               0.000000000               0.000000000               0.000000000               0.000000000              -0.000660975               0.000299160              -0.000271505              -0.000285260               0.000194805              -0.000090455               0.000000000               0.000000000               0.000000000               0.000000000               0.000167985               0.000782642              -0.000475912              -0.000034837               0.000272490               0.000237654               0.000000000               0.000000000               0.000000000               0.000000000               0.000499571               0.001347742              -0.000523646               0.000018871               0.000442952               0.000461823               0.000000000               0.000000000               0.000000000               0.000000000               0.000624316               0.001866182              -0.000506585               0.000000845               0.000621772               0.000622618               0.000000000               0.000000000               0.000000000               0.000000000               0.000662423               0.002308382              -0.000465997              -0.000040139               0.000782833               0.000742693               0.000000000               0.000000000               0.000000000               0.000000000               0.000662786               0.002674298              -0.000420256              -0.000085743               0.000920005               0.000834262               0.000000000               0.000000000               0.000000000               0.000000000               0.000648366               0.002980383              -0.000378155              -0.000129411               0.001036588               0.000907177               0.000000000               0.000000000               0.000000000               0.000000000               0.000624770               0.003236359              -0.000341640              -0.000170256               0.001135527               0.000965272               0.000000000               0.000000000               0.000000000               0.000000000               0.000597820               0.003446955              -0.000308539              -0.000206686               0.001217869               0.001011182               0.000000000               0.000000000               0.000000000               0.000000000               0.000574695               0.003617719              -0.000277904              -0.000236704               0.001284796               0.001048092               0.000000000               0.000000000               0.000000000               0.000000000               0.000561780               0.003757991              -0.000247261              -0.000259081               0.001339012               0.001079931               0.000000000               0.000000000               0.000000000               0.000000000               0.000566697               0.003878684              -0.000214308              -0.000272324               0.001383656               0.001111333               0.000000000               0.000000000               0.000000000               0.000000000               0.000594084               0.003978292              -0.000176919              -0.000274504               0.001417585               0.001143081               0.000000000               0.000000000               0.000000000               0.000000000               0.000648947               0.004054328              -0.000132391              -0.000263435               0.001439241               0.001175806               0.000000000               0.000000000               0.000000000               0.000000000               0.000736772               0.004101758              -0.000074477              -0.000236430               0.001446049               0.001209619               0.000000000               0.000000000               0.000000000               0.000000000               0.000817485               0.004125869              -0.000042442              -0.000209176               0.001445001               0.001235825               0.000000000               0.000000000               0.000000000               0.000000000               0.000000000               0.000000000               0.000000000               0.000000000               0.000000000               0.000000000               0.000000000               0.000000000               0.000000000               0.000000000               0.000000000               0.000000000               0.000000000               0.000000000               0.000000000               0.000000000               0.000000000               0.000000000               0.000000000               0.000000000               0.000000000               0.000000000               0.000000000               0.000000000               0.000000000               0.000000000               0.000000000               0.000000000               0.000000000               0.000000000               0.000000000               0.000000000               0.000000000               0.000000000               0.000000000               0.000000000               0.000000000               0.000000000               0.000000000               0.000000000               0.000000000               0.000000000               0.000000000               0.000000000               0.000000000               0.000000000               0.000000000               0.000000000               0.000000000               0.000000000               0.000000000               0.000000000               0.000000000               0.000000000               0.000000000               0.000000000               0.000000000               0.000000000               0.000000000               0.000000000               0.000000000               0.000000000               0.000000000               0.000000000               0.000000000               0.000000000               0.000000000               0.000000000               0.000000000               0.000000000               0.000000000               0.000000000               0.000000000               0.000000000               0.000000000               0.000000000               0.000000000               0.000000000               0.000000000               0.000000000               0.000000000               0.000000000               0.000000000               0.000000000               0.000000000               0.000000000               0.000000000               0.000000000               0.000000000               0.000000000               0.000000000               0.000000000               0.000000000               0.000000000               0.000000000               0.000000000               0.000000000               0.000000000               0.000000000               0.000000000               0.000000000               0.000000000               0.000000000               0.000000000               0.000000000               0.000000000               0.000000000               0.000000000               0.000000000               0.000000000               0.000000000               0.000000000               0.000000000               0.000000000               0.000000000               0.000000000               0.000000000               0.000000000               0.000000000               0.000000000               0.000000000               0.000000000               0.000000000               0.000000000               0.000000000               0.000000000               0.000000000               0.000000000               0.000000000               0.000000000               0.000000000               0.000000000               0.000000000               0.000000000               0.000000000               0.000000000               0.000000000               0.000000000               0.000000000               0.000000000               0.000000000               0.000000000               0.000000000               0.000000000               0.000000000               0.000000000               0.000000000               0.000000000               0.000000000               0.000000000               0.000000000               0.000000000               0.000000000               0.000000000               0.000000000               0.000000000               0.000000000               0.000000000               0.000000000               0.000000000               0.000000000               0.000000000               0.000000000               0.000000000               0.000000000               0.000000000               0.000000000               0.000000000               0.000000000               0.000000000               0.000000000               0.000000000               0.000000000               0.000000000               0.000000000               0.000000000               0.000000000               0.000000000               0.000000000               0.000000000               0.000000000               0.000000000               0.000000000               0.000000000               0.000000000               0.000000000               0.000000000               0.000000000               0.000000000               0.000000000               0.000000000               0.000000000               0.000000000               0.000000000               0.000000000               0.000000000               0.000000000               0.000000000               0.000000000               0.000000000               0.000000000               0.000000000               0.000000000               0.000000000               0.000000000               0.000000000               0.000000000               0.000000000               0.000000000               0.000000000               0.000000000               0.000000000               0.000000000               0.000000000               0.000000000               0.000000000               0.000000000               0.000000000               0.000000000               0.000000000               0.000000000               0.000000000               0.000000000               0.000000000               0.000000000               0.000000000               0.000000000               0.000000000               0.000000000               0.000000000               0.000000000               0.000000000               0.000000000               0.000000000               0.000000000               0.000000000               0.000000000               0.000000000               0.000000000               0.000000000               0.000000000               0.000000000               0.000000000               0.000000000               0.000000000               0.000000000               0.000000000               0.000000000               0.000000000               0.000000000               0.000000000               0.000000000               0.000000000               0.000000000               0.000000000               0.000000000               0.000000000               0.000000000               0.000000000               0.000000000               0.000000000               0.000000000               0.000000000               0.000000000               0.000000000               0.000000000               0.000000000               0.000000000               0.000000000               0.000000000               0.000000000               0.000000000               0.000000000               0.000000000               0.000000000               0.000000000               0.000000000               0.000000000               0.000000000               0.000000000               0.000000000               0.000000000               0.000000000               0.000000000               0.000000000               0.000000000               0.000000000               0.000000000               0.000000000               0.000000000               0.000000000               0.000000000               0.000000000               0.000000000               0.000000000               0.000000000               0.000000000               0.000000000               0.000000000               0.000000000               0.000000000               0.000000000               0.000000000               0.000000000               0.000000000               0.000000000               0.000000000               0.000000000               0.000000000               0.000000000               0.000000000               0.000000000               0.000000000               0.000000000               0.000000000               0.000000000               0.000000000               0.000000000               0.000000000               0.000000000               0.000000000               0.000000000               0.000000000               0.000000000               0.000000000               0.000000000               0.000000000               0.000000000               0.000000000               0.000000000               0.000000000               0.000000000               0.000000000               0.000000000               0.000000000               0.000000000               0.000000000               0.000000000               0.000000000               0.000000000               0.001180362               0.012397857               0.000914213              -0.001107094               0.004501609               0.003394515               0.000000000               0.000000000               0.000000000               0.000000000               0.001209237               0.010100554               0.000540488              -0.000809103               0.003636519               0.002827415               0.000000000               0.000000000               0.000000000               0.000000000               0.001607540               0.008279639               0.000161318              -0.000432126               0.002903894               0.002471768               0.000000000               0.000000000               0.000000000               0.000000000               0.001622462               0.007281088              -0.000008408              -0.000301712               0.002527576               0.002225864               0.000000000               0.000000000               0.000000000               0.000000000               0.001510248               0.006688079              -0.000084546              -0.000269666               0.002319226               0.002049560               0.000000000               0.000000000               0.000000000               0.000000000               0.001363015               0.006308241              -0.000116392              -0.000277399               0.002195192               0.001917793               0.000000000               0.000000000               0.000000000               0.000000000               0.001213436               0.006050206              -0.000129182              -0.000301236               0.002117127               0.001815891               0.000000000               0.000000000               0.000000000               0.000000000               0.001067695               0.005868903              -0.000133550              -0.000333226               0.002067357               0.001734131               0.000000000               0.000000000               0.000000000               0.000000000               0.000923260               0.005736443              -0.000132102              -0.000370832               0.002035739               0.001664907               0.000000000               0.000000000               0.000000000               0.000000000               0.000782507               0.005634899              -0.000126188              -0.000410921               0.002015255               0.001604333               0.000000000               0.000000000               0.000000000               0.000000000               0.000651507               0.005553040              -0.000119454              -0.000449814               0.002000933               0.001551119               0.000000000               0.000000000               0.000000000               0.000000000               0.000528237               0.005483972              -0.000113983              -0.000487406               0.001990441               0.001503035               0.000000000               0.000000000               0.000000000               0.000000000               0.000406974               0.005421334              -0.000107179              -0.000525050               0.001982110               0.001457060               0.000000000               0.000000000               0.000000000               0.000000000               0.000289925               0.005358207              -0.000096164              -0.000561053               0.001973069               0.001412016               0.000000000               0.000000000               0.000000000               0.000000000               0.000181674               0.005287698              -0.000077665              -0.000592833               0.001960159               0.001367326               0.000000000               0.000000000               0.000000000               0.000000000               0.000086023               0.005202403              -0.000046124              -0.000618040               0.001940130               0.001322090               0.000000000               0.000000000               0.000000000               0.000000000               0.000036174               0.005137740              -0.000028118              -0.000628651               0.001922113               0.001293462               0.000000000               0.000000000               0.000000000               0.000000000               0.001328138               0.011721867               0.001728120              -0.000967180               0.004229643               0.003262463               0.000000000               0.000000000               0.000000000               0.000000000               0.001209770               0.009648197               0.001029554              -0.000752359               0.003466820               0.002714461               0.000000000               0.000000000               0.000000000               0.000000000               0.001445823               0.008052726               0.000322799              -0.000464406               0.002839017               0.002374611               0.000000000               0.000000000               0.000000000               0.000000000               0.001399626               0.007164403               0.000012286              -0.000370690               0.002511674               0.002140984               0.000000000               0.000000000               0.000000000               0.000000000               0.001275075               0.006622059              -0.000125954              -0.000349604               0.002323865               0.001974262               0.000000000               0.000000000               0.000000000               0.000000000               0.001134325               0.006265312              -0.000182844              -0.000357791               0.002207680               0.001849889               0.000000000               0.000000000               0.000000000               0.000000000               0.000995747               0.006016615              -0.000204888              -0.000378671               0.002131742               0.001753071               0.000000000               0.000000000               0.000000000               0.000000000               0.000864435               0.005838690              -0.000212668              -0.000405672               0.002081435               0.001675763               0.000000000               0.000000000               0.000000000               0.000000000               0.000738131               0.005707637              -0.000210476              -0.000436655               0.002048078               0.001611424               0.000000000               0.000000000               0.000000000               0.000000000               0.000615096               0.005603312              -0.000200855              -0.000469752               0.002024336               0.001554584               0.000000000               0.000000000               0.000000000               0.000000000               0.000500552               0.005518108              -0.000189062              -0.000502055               0.002006703               0.001504648               0.000000000               0.000000000               0.000000000               0.000000000               0.000394501               0.005446067              -0.000178667              -0.000532819               0.001992944               0.001460125               0.000000000               0.000000000               0.000000000               0.000000000               0.000295381               0.005380106              -0.000165840              -0.000561744               0.001980599               0.001418855               0.000000000               0.000000000               0.000000000               0.000000000               0.000205473               0.005315467              -0.000145117              -0.000587379               0.001967598               0.001380218               0.000000000               0.000000000               0.000000000               0.000000000               0.000127545               0.005249487              -0.000113098              -0.000608355               0.001952597               0.001344241               0.000000000               0.000000000               0.000000000               0.000000000               0.000061790               0.005182525              -0.000064624              -0.000624643               0.001935705               0.001311062               0.000000000               0.000000000               0.000000000               0.000000000               0.000028132               0.005139821              -0.000037579              -0.000631926               0.001923899               0.001291972               0.000000000               0.000000000               0.000000000               0.000000000               0.001527780               0.010701353               0.002354089              -0.000764751               0.003821998               0.003057247               0.000000000               0.000000000               0.000000000               0.000000000               0.001198726               0.008964268               0.001418160              -0.000671010               0.003211730               0.002540719               0.000000000               0.000000000               0.000000000               0.000000000               0.001206224               0.007705540               0.000477373              -0.000510857               0.002738773               0.002227916               0.000000000               0.000000000               0.000000000               0.000000000               0.001081849               0.006978053               0.000075674              -0.000466562               0.002481515               0.002014953               0.000000000               0.000000000               0.000000000               0.000000000               0.000945228               0.006510561              -0.000100301              -0.000459359               0.002323285               0.001863926               0.000000000               0.000000000               0.000000000               0.000000000               0.000818862               0.006189174              -0.000173241              -0.000466572               0.002218561               0.001751989               0.000000000               0.000000000               0.000000000               0.000000000               0.000705101               0.005962927              -0.000201575              -0.000480952               0.002147940               0.001666988               0.000000000               0.000000000               0.000000000               0.000000000               0.000600133               0.005796636              -0.000213821              -0.000499528               0.002098702               0.001599174               0.000000000               0.000000000               0.000000000               0.000000000               0.000500884               0.005666052              -0.000213804              -0.000520424               0.002062140               0.001541716               0.000000000               0.000000000               0.000000000               0.000000000               0.000407788               0.005558083              -0.000205313              -0.000541838               0.002033289               0.001491450               0.000000000               0.000000000               0.000000000               0.000000000               0.000321944               0.005469597              -0.000196367              -0.000562969               0.002010837               0.001447868               0.000000000               0.000000000               0.000000000               0.000000000               0.000243138               0.005394074              -0.000188007              -0.000583081               0.001992367               0.001409286               0.000000000               0.000000000               0.000000000               0.000000000               0.000174201               0.005327315              -0.000175074              -0.000600587               0.001975950               0.001375362               0.000000000               0.000000000               0.000000000               0.000000000               0.000116529               0.005265371              -0.000151689              -0.000614471               0.001959930               0.001345458               0.000000000               0.000000000               0.000000000               0.000000000               0.000069644               0.005208214              -0.000116581              -0.000624909               0.001944357               0.001319448               0.000000000               0.000000000               0.000000000               0.000000000               0.000031953               0.005161276              -0.000065893              -0.000633176               0.001931467               0.001298291               0.000000000               0.000000000               0.000000000               0.000000000               0.000013963               0.005138441              -0.000036826              -0.000637067               0.001925152               0.001288085               0.000000000               0.000000000               0.000000000               0.000000000               0.001711037               0.009456943               0.002739128              -0.000540480               0.003332442               0.002791962               0.000000000               0.000000000               0.000000000               0.000000000               0.001151840               0.008135685               0.001677661              -0.000585020               0.002906875               0.002321854               0.000000000               0.000000000               0.000000000               0.000000000               0.000913499               0.007282502               0.000619423              -0.000567749               0.002616726               0.002048977               0.000000000               0.000000000               0.000000000               0.000000000               0.000722644               0.006739206               0.000182990              -0.000571408               0.002436849               0.001865441               0.000000000               0.000000000               0.000000000               0.000000000               0.000587829               0.006359642              -0.000005096              -0.000574518               0.002311366               0.001736848               0.000000000               0.000000000               0.000000000               0.000000000               0.000487518               0.006082885              -0.000088795              -0.000577540               0.002220121               0.001642581               0.000000000               0.000000000               0.000000000               0.000000000               0.000409088               0.005882874              -0.000126888              -0.000581950               0.002154922               0.001572972               0.000000000               0.000000000               0.000000000               0.000000000               0.000340990               0.005725501              -0.000145385              -0.000587815               0.002104419               0.001516605               0.000000000               0.000000000               0.000000000               0.000000000               0.000275516               0.005592314              -0.000153246              -0.000595719               0.002062659               0.001466940               0.000000000               0.000000000               0.000000000               0.000000000               0.000217491               0.005485046              -0.000153824              -0.000604070               0.002029687               0.001425617               0.000000000               0.000000000               0.000000000               0.000000000               0.000166686               0.005396160              -0.000152189              -0.000612011               0.002002706               0.001390694               0.000000000               0.000000000               0.000000000               0.000000000               0.000123518               0.005320887              -0.000149176              -0.000618790               0.001979875               0.001361084               0.000000000               0.000000000               0.000000000               0.000000000               0.000088439               0.005253460              -0.000139612              -0.000623516               0.001958975               0.001335458               0.000000000               0.000000000               0.000000000               0.000000000               0.000059450               0.005190197              -0.000118538              -0.000626479               0.001938875               0.001312396               0.000000000               0.000000000               0.000000000               0.000000000               0.000036831               0.005137285              -0.000088015              -0.000628347               0.001921860               0.001293513               0.000000000               0.000000000               0.000000000               0.000000000               0.000016687               0.005099497              -0.000047760              -0.000631178               0.001910208               0.001279030               0.000000000               0.000000000               0.000000000               0.000000000               0.000006979               0.005086100              -0.000024882              -0.000633144               0.001906398               0.001273254               0.000000000               0.000000000               0.000000000               0.000000000               0.001809591               0.008101419               0.002883421              -0.000334083               0.002811806               0.002477723               0.000000000               0.000000000               0.000000000               0.000000000               0.001056157               0.007243883               0.001818914              -0.000509427               0.002584412               0.002074985               0.000000000               0.000000000               0.000000000               0.000000000               0.000601322               0.006816419               0.000759788              -0.000626555               0.002480969               0.001854413               0.000000000               0.000000000               0.000000000               0.000000000               0.000375692               0.006454690               0.000331918              -0.000665950               0.002373525               0.001707575               0.000000000               0.000000000               0.000000000               0.000000000               0.000264719               0.006166041               0.000143147              -0.000671484               0.002279155               0.001607671               0.000000000               0.000000000               0.000000000               0.000000000               0.000203680               0.005940636               0.000049177              -0.000666198               0.002202258               0.001536060               0.000000000               0.000000000               0.000000000               0.000000000               0.000162011               0.005761315              -0.000001932              -0.000659409               0.002140222               0.001480814               0.000000000               0.000000000               0.000000000               0.000000000               0.000130473               0.005610652              -0.000030828              -0.000652402               0.002087666               0.001435264               0.000000000               0.000000000               0.000000000               0.000000000               0.000102757               0.005483017              -0.000051623              -0.000646841               0.002043268               0.001396426               0.000000000               0.000000000               0.000000000               0.000000000               0.000078635               0.005375179              -0.000066014              -0.000642408               0.002005844               0.001363437               0.000000000               0.000000000               0.000000000               0.000000000               0.000058266               0.005283138              -0.000075916              -0.000638541               0.001973875               0.001335334               0.000000000               0.000000000               0.000000000               0.000000000               0.000045327               0.005203010              -0.000082063              -0.000633377               0.001945445               0.001312068               0.000000000               0.000000000               0.000000000               0.000000000               0.000038862               0.005127773              -0.000077597              -0.000626397               0.001918040               0.001291643               0.000000000               0.000000000               0.000000000               0.000000000               0.000029732               0.005056363              -0.000063737              -0.000620894               0.001892402               0.001271508               0.000000000               0.000000000               0.000000000               0.000000000               0.000018653               0.004995900              -0.000045046              -0.000617491               0.001871114               0.001253623               0.000000000               0.000000000               0.000000000               0.000000000               0.000010037               0.004950533              -0.000022437              -0.000615051               0.001855178               0.001240127               0.000000000               0.000000000               0.000000000               0.000000000               0.000003617               0.004926895              -0.000012436              -0.000614504               0.001847116               0.001232612               0.000000000               0.000000000               0.000000000               0.000000000               0.001787613               0.006731162               0.002821790              -0.000171043               0.002300712               0.002129668               0.000000000               0.000000000               0.000000000               0.000000000               0.000917128               0.006357100               0.001868315              -0.000450715               0.002269250               0.001818535               0.000000000               0.000000000               0.000000000               0.000000000               0.000309275               0.006337827               0.000905140              -0.000676249               0.002338004               0.001661755               0.000000000               0.000000000               0.000000000               0.000000000               0.000089382               0.006142399               0.000507464              -0.000734280               0.002292206               0.001557926               0.000000000               0.000000000               0.000000000               0.000000000               0.000018756               0.005937017               0.000316659              -0.000735092               0.002224017               0.001488925               0.000000000               0.000000000               0.000000000               0.000000000              -0.000001944               0.005754691               0.000210156              -0.000720064               0.002158232               0.001438169               0.000000000               0.000000000               0.000000000               0.000000000              -0.000009183               0.005596289               0.000143832              -0.000702978               0.002099737               0.001396759               0.000000000               0.000000000               0.000000000               0.000000000              -0.000007338               0.005459411               0.000099433              -0.000685176               0.002048178               0.001363001               0.000000000               0.000000000               0.000000000               0.000000000              -0.000005328               0.005336913               0.000063157              -0.000669110               0.002001990               0.001332880               0.000000000               0.000000000               0.000000000               0.000000000              -0.000004506               0.005227267               0.000031284              -0.000655097               0.001960771               0.001305674               0.000000000               0.000000000               0.000000000               0.000000000              -0.000002842               0.005131384               0.000005474              -0.000642487               0.001924607               0.001282119               0.000000000               0.000000000               0.000000000               0.000000000               0.000001553               0.005039933              -0.000012499              -0.000629408               0.001889764               0.001260356               0.000000000               0.000000000               0.000000000               0.000000000               0.000005950               0.004950655              -0.000019453              -0.000616599               0.001855735               0.001239136               0.000000000               0.000000000               0.000000000               0.000000000               0.000004390               0.004868107              -0.000018600              -0.000606866               0.001824975               0.001218109               0.000000000               0.000000000               0.000000000               0.000000000               0.000001796               0.004796523              -0.000016770              -0.000598890               0.001798455               0.001199565               0.000000000               0.000000000               0.000000000               0.000000000               0.000000547               0.004735941              -0.000010374              -0.000591786               0.001775893               0.001184107               0.000000000               0.000000000               0.000000000               0.000000000              -0.000006780               0.004695842              -0.000009198              -0.000589521               0.001761772               0.001172251               0.000000000               0.000000000               0.000000000               0.000000000               0.001654112               0.005435757               0.002591007              -0.000059181               0.001831627               0.001772446               0.000000000               0.000000000               0.000000000               0.000000000               0.000747226               0.005529797               0.001844636              -0.000411016               0.001980252               0.001569236               0.000000000               0.000000000               0.000000000               0.000000000               0.000068905               0.005867297               0.001054063              -0.000707571               0.002191603               0.001484032               0.000000000               0.000000000               0.000000000               0.000000000              -0.000111127               0.005811892               0.000689715              -0.000768157               0.002193330               0.001425173               0.000000000               0.000000000               0.000000000               0.000000000              -0.000135248               0.005675079               0.000490823              -0.000760101               0.002145041               0.001384940               0.000000000               0.000000000               0.000000000               0.000000000              -0.000121265               0.005531680               0.000367140              -0.000736933               0.002089519               0.001352587               0.000000000               0.000000000               0.000000000               0.000000000              -0.000099145               0.005399607               0.000281317              -0.000712129               0.002037227               0.001325099               0.000000000               0.000000000               0.000000000               0.000000000              -0.000075750               0.005277277               0.000218183              -0.000688064               0.001988429               0.001300365               0.000000000               0.000000000               0.000000000               0.000000000              -0.000057610               0.005160705               0.000162722              -0.000666690               0.001942448               0.001275758               0.000000000               0.000000000               0.000000000               0.000000000              -0.000041736               0.005054566               0.000111070              -0.000647470               0.001900662               0.001253192               0.000000000               0.000000000               0.000000000               0.000000000              -0.000030494               0.004950674               0.000068357              -0.000630268               0.001860298               0.001230030               0.000000000               0.000000000               0.000000000               0.000000000              -0.000022771               0.004845445               0.000037453              -0.000614218               0.001819872               0.001205653               0.000000000               0.000000000               0.000000000               0.000000000              -0.000017809               0.004743345               0.000016465              -0.000599595               0.001780964               0.001181369               0.000000000               0.000000000               0.000000000               0.000000000              -0.000019407               0.004650056               0.000001774              -0.000588533               0.001746181               0.001157648               0.000000000               0.000000000               0.000000000               0.000000000              -0.000019907               0.004568188              -0.000009223              -0.000578487               0.001715543               0.001137056               0.000000000               0.000000000               0.000000000               0.000000000              -0.000015109               0.004495196              -0.000010534              -0.000567564               0.001687572               0.001120008               0.000000000               0.000000000               0.000000000               0.000000000              -0.000017032               0.004448886              -0.000011342              -0.000562496               0.001670446               0.001107950               0.000000000               0.000000000               0.000000000               0.000000000               0.001454593               0.004316005               0.002253237               0.000005968               0.001436663               0.001442632               0.000000000               0.000000000               0.000000000               0.000000000               0.000596720               0.004789283               0.001784423              -0.000374891               0.001721375               0.001346484               0.000000000               0.000000000               0.000000000               0.000000000              -0.000083533               0.005427987               0.001222786              -0.000709822               0.002045918               0.001336096               0.000000000               0.000000000               0.000000000               0.000000000              -0.000221605               0.005508610               0.000886353              -0.000771677               0.002093410               0.001321734               0.000000000               0.000000000               0.000000000               0.000000000              -0.000210420               0.005443305               0.000672252              -0.000759319               0.002067523               0.001308204               0.000000000               0.000000000               0.000000000               0.000000000              -0.000170700               0.005347265               0.000525713              -0.000732419               0.002026543               0.001294124               0.000000000               0.000000000               0.000000000               0.000000000              -0.000130243               0.005246986               0.000417360              -0.000704712               0.001983882               0.001279169               0.000000000               0.000000000               0.000000000               0.000000000              -0.000091275               0.005140869               0.000331742              -0.000676835               0.001939217               0.001262382               0.000000000               0.000000000               0.000000000               0.000000000              -0.000065441               0.005036382               0.000257443              -0.000654087               0.001896806               0.001242719               0.000000000               0.000000000               0.000000000               0.000000000              -0.000046235               0.004933302               0.000191169              -0.000633999               0.001855751               0.001221751               0.000000000               0.000000000               0.000000000               0.000000000              -0.000033546               0.004821305               0.000134234              -0.000615241               0.001812166               0.001196925               0.000000000               0.000000000               0.000000000               0.000000000              -0.000029284               0.004702089               0.000088133              -0.000598741               0.001766928               0.001168187               0.000000000               0.000000000               0.000000000               0.000000000              -0.000032191               0.004586921               0.000050617              -0.000585435               0.001724104               0.001138668               0.000000000               0.000000000               0.000000000               0.000000000              -0.000041100               0.004484445               0.000020983              -0.000575967               0.001686789               0.001110822               0.000000000               0.000000000               0.000000000               0.000000000              -0.000052703               0.004390131               0.000001141              -0.000568529               0.001652872               0.001084343               0.000000000               0.000000000               0.000000000               0.000000000              -0.000058640               0.004301139              -0.000005664              -0.000559631               0.001620242               0.001060611               0.000000000               0.000000000               0.000000000               0.000000000              -0.000057590               0.004253369              -0.000006469              -0.000553266               0.001602197               0.001048932               0.000000000               0.000000000               0.000000000               0.000000000               0.001178011               0.003257466               0.001871581               0.000034568               0.001074288               0.001108855               0.000000000               0.000000000               0.000000000               0.000000000               0.000495548               0.003945342               0.001704794              -0.000307338               0.001417546               0.001110208               0.000000000               0.000000000               0.000000000               0.000000000              -0.000118538               0.004797416               0.001411131              -0.000644128               0.001813832               0.001169703               0.000000000               0.000000000               0.000000000               0.000000000              -0.000245492               0.005050875               0.001118280              -0.000723418               0.001924747               0.001201330               0.000000000               0.000000000               0.000000000               0.000000000              -0.000229492               0.005101537               0.000890402              -0.000723750               0.001941745               0.001217995               0.000000000               0.000000000               0.000000000               0.000000000              -0.000182379               0.005087912               0.000716046              -0.000704380               0.001930747               0.001226367               0.000000000               0.000000000               0.000000000               0.000000000              -0.000139165               0.005044533               0.000582925              -0.000682752               0.001909078               0.001226326               0.000000000               0.000000000               0.000000000               0.000000000              -0.000099688               0.004978326               0.000474223              -0.000659672               0.001879316               0.001219644               0.000000000               0.000000000               0.000000000               0.000000000              -0.000070751               0.004899853               0.000381609              -0.000639012               0.001846272               0.001207260               0.000000000               0.000000000               0.000000000               0.000000000              -0.000054744               0.004812704               0.000301645              -0.000622115               0.001811590               0.001189475               0.000000000               0.000000000               0.000000000               0.000000000              -0.000044149               0.004717555               0.000230570              -0.000606249               0.001774586               0.001168337               0.000000000               0.000000000               0.000000000               0.000000000              -0.000042189               0.004608342               0.000166954              -0.000591862               0.001733386               0.001141524               0.000000000               0.000000000               0.000000000               0.000000000              -0.000049681               0.004499729               0.000109386              -0.000581095               0.001693593               0.001112498               0.000000000               0.000000000               0.000000000               0.000000000              -0.000065967               0.004399974               0.000060270              -0.000574733               0.001658221               0.001083488               0.000000000               0.000000000               0.000000000               0.000000000              -0.000090594               0.004305222               0.000025259              -0.000572124               0.001625768               0.001053643               0.000000000               0.000000000               0.000000000               0.000000000              -0.000118116               0.004213729               0.000006202              -0.000571008               0.001594898               0.001023890               0.000000000               0.000000000               0.000000000               0.000000000              -0.000130342               0.004167447              -0.000000031              -0.000569808               0.001579071               0.001009263               0.000000000               0.000000000               0.000000000               0.000000000               0.000764234               0.002295068               0.001459963              -0.000000298               0.000765114               0.000764815               0.000000000               0.000000000               0.000000000               0.000000000               0.000373226               0.003112655               0.001575152              -0.000249123               0.001120582               0.000871459               0.000000000               0.000000000               0.000000000               0.000000000              -0.000088404               0.004089881               0.001551598              -0.000544386               0.001544742               0.001000355               0.000000000               0.000000000               0.000000000               0.000000000              -0.000202381               0.004506940               0.001337697              -0.000639260               0.001715385               0.001076125               0.000000000               0.000000000               0.000000000               0.000000000              -0.000196910               0.004690334               0.001116190              -0.000660132               0.001783473               0.001123341               0.000000000               0.000000000               0.000000000               0.000000000              -0.000156888               0.004771846               0.000925817              -0.000655312               0.001809037               0.001153724               0.000000000               0.000000000               0.000000000               0.000000000              -0.000117871               0.004801718               0.000772145              -0.000644415               0.001815362               0.001170947               0.000000000               0.000000000               0.000000000               0.000000000              -0.000085380               0.004794195               0.000644046              -0.000631291               0.001808479               0.001177188               0.000000000               0.000000000               0.000000000               0.000000000              -0.000056116               0.004755799               0.000535957              -0.000615517               0.001790423               0.001174906               0.000000000               0.000000000               0.000000000               0.000000000              -0.000038562               0.004698311               0.000445073              -0.000601748               0.001766671               0.001164923               0.000000000               0.000000000               0.000000000               0.000000000              -0.000027791               0.004628265               0.000365021              -0.000588953               0.001739057               0.001150104               0.000000000               0.000000000               0.000000000               0.000000000              -0.000024461               0.004544996               0.000287826              -0.000577296               0.001707415               0.001130120               0.000000000               0.000000000               0.000000000               0.000000000              -0.000033173               0.004455195               0.000212452              -0.000569338               0.001674830               0.001105492               0.000000000               0.000000000               0.000000000               0.000000000              -0.000056174               0.004365642               0.000142043              -0.000566769               0.001644123               0.001077354               0.000000000               0.000000000               0.000000000               0.000000000              -0.000097098               0.004279380               0.000080542              -0.000571333               0.001616890               0.001045557               0.000000000               0.000000000               0.000000000               0.000000000              -0.000155691               0.004198829               0.000033433              -0.000583236               0.001594008               0.001010772               0.000000000               0.000000000               0.000000000               0.000000000              -0.000199037               0.004153247               0.000009428              -0.000593793               0.001582333               0.000988540               0.000000000               0.000000000               0.000000000               0.000000000               0.000226889               0.001471797               0.001041818              -0.000098892               0.000523557               0.000424665               0.000000000               0.000000000               0.000000000               0.000000000               0.000190060               0.002321469               0.001378075              -0.000218912               0.000846785               0.000627873               0.000000000               0.000000000               0.000000000               0.000000000              -0.000033470               0.003309010               0.001577763              -0.000426178               0.001245051               0.000818873               0.000000000               0.000000000               0.000000000               0.000000000              -0.000093524               0.003844312               0.001461519              -0.000515610               0.001453294               0.000937684               0.000000000               0.000000000               0.000000000               0.000000000              -0.000089981               0.004148438               0.001275332              -0.000552297               0.001566897               0.001014600               0.000000000               0.000000000               0.000000000               0.000000000              -0.000062214               0.004333615               0.001089910              -0.000565031               0.001632867               0.001067836               0.000000000               0.000000000               0.000000000               0.000000000              -0.000036553               0.004449713               0.000928240              -0.000569921               0.001673196               0.001103276               0.000000000               0.000000000               0.000000000               0.000000000              -0.000017570               0.004512595               0.000792301              -0.000570662               0.001694404               0.001123742               0.000000000               0.000000000               0.000000000               0.000000000               0.000002883               0.004531501               0.000677123              -0.000565355               0.001698937               0.001133581               0.000000000               0.000000000               0.000000000               0.000000000               0.000018930               0.004517096               0.000580442              -0.000557537               0.001691529               0.001133992               0.000000000               0.000000000               0.000000000               0.000000000               0.000027504               0.004483768               0.000495876              -0.000550156               0.001677960               0.001127804               0.000000000               0.000000000               0.000000000               0.000000000               0.000031319               0.004441541               0.000411620              -0.000543447               0.001661648               0.001118201               0.000000000               0.000000000               0.000000000               0.000000000               0.000024858               0.004389210               0.000325025              -0.000539328               0.001642831               0.001103503               0.000000000               0.000000000               0.000000000               0.000000000               0.000001333               0.004326898               0.000238324              -0.000540361               0.001622405               0.001082044               0.000000000               0.000000000               0.000000000               0.000000000              -0.000044831               0.004258242               0.000152274              -0.000549091               0.001602430               0.001053339               0.000000000               0.000000000               0.000000000               0.000000000              -0.000120120               0.004189959               0.000072439              -0.000568788               0.001586235               0.001017447               0.000000000               0.000000000               0.000000000               0.000000000              -0.000186439               0.004143091               0.000027093              -0.000587800               0.001576950               0.000989150               0.000000000               0.000000000               0.000000000               0.000000000              -0.000382816               0.000816405               0.000659886              -0.000245607               0.000354001               0.000108394               0.000000000               0.000000000               0.000000000               0.000000000              -0.000035890               0.001603694               0.001129942              -0.000213921               0.000605865               0.000391945               0.000000000               0.000000000               0.000000000               0.000000000               0.000033136               0.002509470               0.001478786              -0.000301259               0.000936900               0.000635642               0.000000000               0.000000000               0.000000000               0.000000000               0.000063486               0.003109821               0.001452030              -0.000364921               0.001158236               0.000793315               0.000000000               0.000000000               0.000000000               0.000000000               0.000081788               0.003513025               0.001315488              -0.000408458               0.001307149               0.000898691               0.000000000               0.000000000               0.000000000               0.000000000               0.000099271               0.003796282               0.001154755              -0.000437308               0.001411184               0.000973875               0.000000000               0.000000000               0.000000000               0.000000000               0.000111187               0.003999707               0.001003938              -0.000458268               0.001485978               0.001027711               0.000000000               0.000000000               0.000000000               0.000000000               0.000117402               0.004138213               0.000876281              -0.000473250               0.001537140               0.001063890               0.000000000               0.000000000               0.000000000               0.000000000               0.000124597               0.004225607               0.000767240              -0.000481476               0.001569014               0.001087538               0.000000000               0.000000000               0.000000000               0.000000000               0.000131543               0.004271484               0.000672362              -0.000484606               0.001585349               0.001100743               0.000000000               0.000000000               0.000000000               0.000000000               0.000132610               0.004289095               0.000588939              -0.000486407               0.001591820               0.001105413               0.000000000               0.000000000               0.000000000               0.000000000               0.000132365               0.004295379               0.000505413              -0.000487284               0.001594207               0.001106923               0.000000000               0.000000000               0.000000000               0.000000000               0.000130256               0.004288453               0.000416496              -0.000487210               0.001591873               0.001104664               0.000000000               0.000000000               0.000000000               0.000000000               0.000117370               0.004263418               0.000323083              -0.000488912               0.001584096               0.001095184               0.000000000               0.000000000               0.000000000               0.000000000               0.000085441               0.004223524               0.000221349              -0.000495899               0.001573127               0.001077228               0.000000000               0.000000000               0.000000000               0.000000000               0.000023682               0.004174936               0.000112605              -0.000512985               0.001562626               0.001049641               0.000000000               0.000000000               0.000000000               0.000000000              -0.000038090               0.004136603               0.000050754              -0.000531358               0.001555973               0.001024615               0.000000000               0.000000000               0.000000000               0.000000000              -0.000988646               0.000348274               0.000355087              -0.000414276               0.000254181              -0.000160095               0.000000000               0.000000000               0.000000000               0.000000000              -0.000277358               0.001004621               0.000849566              -0.000229587               0.000411399               0.000181811               0.000000000               0.000000000               0.000000000               0.000000000               0.000096071               0.001766284               0.001252182              -0.000184760               0.000650341               0.000465582               0.000000000               0.000000000               0.000000000               0.000000000               0.000235199               0.002385236               0.001288993              -0.000209956               0.000865055               0.000655099               0.000000000               0.000000000               0.000000000               0.000000000               0.000285608               0.002858612               0.001202359              -0.000250224               0.001036269               0.000786045               0.000000000               0.000000000               0.000000000               0.000000000               0.000303382               0.003219311               0.001078425              -0.000288646               0.001169308               0.000880662               0.000000000               0.000000000               0.000000000               0.000000000               0.000309079               0.003498318               0.000954244              -0.000321385               0.001273222               0.000951837               0.000000000               0.000000000               0.000000000               0.000000000               0.000305480               0.003710579               0.000847707              -0.000349267               0.001353270               0.001004002               0.000000000               0.000000000               0.000000000               0.000000000               0.000298561               0.003867357               0.000756051              -0.000371459               0.001412925               0.001041467               0.000000000               0.000000000               0.000000000               0.000000000               0.000293407               0.003978432               0.000672633              -0.000387276               0.001455223               0.001067947               0.000000000               0.000000000               0.000000000               0.000000000               0.000287178               0.004052548               0.000597459              -0.000398876               0.001483795               0.001084919               0.000000000               0.000000000               0.000000000               0.000000000               0.000282276               0.004105120               0.000524352              -0.000407286               0.001504121               0.001096836               0.000000000               0.000000000               0.000000000               0.000000000               0.000283284               0.004145904               0.000446004              -0.000412005               0.001519289               0.001107284               0.000000000               0.000000000               0.000000000               0.000000000               0.000283996               0.004165733               0.000358626              -0.000414217               0.001526636               0.001112419               0.000000000               0.000000000               0.000000000               0.000000000               0.000277075               0.004162234               0.000257381              -0.000416375               0.001526189               0.001109814               0.000000000               0.000000000               0.000000000               0.000000000               0.000258514               0.004147878               0.000137660              -0.000421541               0.001523126               0.001101585               0.000000000               0.000000000               0.000000000               0.000000000               0.000233900               0.004132656               0.000069445              -0.000428868               0.001520494               0.001091626               0.000000000               0.000000000               0.000000000               0.000000000              -0.001506191               0.000052073               0.000151717              -0.000571330               0.000207800              -0.000363530               0.000000000               0.000000000               0.000000000               0.000000000              -0.000498703               0.000561528               0.000557369              -0.000257205               0.000272908               0.000015704               0.000000000               0.000000000               0.000000000               0.000000000               0.000142355               0.001166790               0.000907591              -0.000092466               0.000419747               0.000327281               0.000000000               0.000000000               0.000000000               0.000000000               0.000389637               0.001766436               0.000971777              -0.000074691               0.000613703               0.000539011               0.000000000               0.000000000               0.000000000               0.000000000               0.000480395               0.002275075               0.000926725              -0.000104237               0.000793096               0.000688859               0.000000000               0.000000000               0.000000000               0.000000000               0.000507062               0.002687953               0.000844788              -0.000145846               0.000944591               0.000798744               0.000000000               0.000000000               0.000000000               0.000000000               0.000510217               0.003023489               0.000756526              -0.000186605               0.001070021               0.000883416               0.000000000               0.000000000               0.000000000               0.000000000               0.000500453               0.003294800               0.000677284              -0.000224180               0.001172982               0.000948802               0.000000000               0.000000000               0.000000000               0.000000000               0.000483153               0.003508717               0.000609791              -0.000257407               0.001255363               0.000997956               0.000000000               0.000000000               0.000000000               0.000000000               0.000466239               0.003676098               0.000548271              -0.000284672               0.001320244               0.001035572               0.000000000               0.000000000               0.000000000               0.000000000               0.000453536               0.003804576               0.000491628              -0.000305495               0.001370011               0.001064516               0.000000000               0.000000000               0.000000000               0.000000000               0.000446460               0.003906492               0.000436565              -0.000320888               0.001409114               0.001088225               0.000000000               0.000000000               0.000000000               0.000000000               0.000448557               0.003993036               0.000377195              -0.000330920               0.001441305               0.001110385               0.000000000               0.000000000               0.000000000               0.000000000               0.000461286               0.004059933               0.000309305              -0.000334509               0.001464800               0.001130292               0.000000000               0.000000000               0.000000000               0.000000000               0.000485827               0.004102156               0.000229055              -0.000330584               0.001477566               0.001146983               0.000000000               0.000000000               0.000000000               0.000000000               0.000523025               0.004121570               0.000126888              -0.000319061               0.001480197               0.001161136               0.000000000               0.000000000               0.000000000               0.000000000               0.000554264               0.004128062               0.000068826              -0.000308158               0.001478726               0.001170568               0.000000000               0.000000000               0.000000000               0.000000000              -0.001852407              -0.000097040               0.000043674              -0.000682522               0.000195159              -0.000487363               0.000000000               0.000000000               0.000000000               0.000000000              -0.000660975               0.000299160               0.000271505              -0.000285260               0.000194805              -0.000090455               0.000000000               0.000000000               0.000000000               0.000000000               0.000167985               0.000782642               0.000475912              -0.000034837               0.000272490               0.000237654               0.000000000               0.000000000               0.000000000               0.000000000               0.000499571               0.001347742               0.000523646               0.000018871               0.000442952               0.000461823               0.000000000               0.000000000               0.000000000               0.000000000               0.000624316               0.001866182               0.000506585               0.000000845               0.000621772               0.000622618               0.000000000               0.000000000               0.000000000               0.000000000               0.000662423               0.002308382               0.000465997              -0.000040139               0.000782833               0.000742693               0.000000000               0.000000000               0.000000000               0.000000000               0.000662786               0.002674298               0.000420256              -0.000085743               0.000920005               0.000834262               0.000000000               0.000000000               0.000000000               0.000000000               0.000648366               0.002980383               0.000378155              -0.000129411               0.001036588               0.000907177               0.000000000               0.000000000               0.000000000               0.000000000               0.000624770               0.003236359               0.000341640              -0.000170256               0.001135527               0.000965272               0.000000000               0.000000000               0.000000000               0.000000000               0.000597820               0.003446955               0.000308539              -0.000206686               0.001217869               0.001011182               0.000000000               0.000000000               0.000000000               0.000000000               0.000574695               0.003617719               0.000277904              -0.000236704               0.001284796               0.001048092               0.000000000               0.000000000               0.000000000               0.000000000               0.000561780               0.003757991               0.000247261              -0.000259081               0.001339012               0.001079931               0.000000000               0.000000000               0.000000000               0.000000000               0.000566697               0.003878684               0.000214308              -0.000272324               0.001383656               0.001111333               0.000000000               0.000000000               0.000000000               0.000000000               0.000594084               0.003978292               0.000176919              -0.000274504               0.001417585               0.001143081               0.000000000               0.000000000               0.000000000               0.000000000               0.000648947               0.004054328               0.000132391              -0.000263435               0.001439241               0.001175806               0.000000000               0.000000000               0.000000000               0.000000000               0.000736772               0.004101758               0.000074477              -0.000236430               0.001446049               0.001209619               0.000000000               0.000000000               0.000000000               0.000000000               0.000817485               0.004125869               0.000042442              -0.000209176               0.001445001               0.001235825               0.000000000               0.000000000               0.000000000               0.000000000               0.000000000               0.000000000               0.000000000               0.000000000               0.000000000               0.000000000               0.000000000               0.000000000               0.000000000               0.000000000               0.000000000               0.000000000               0.000000000               0.000000000               0.000000000               0.000000000               0.000000000               0.000000000               0.000000000               0.000000000               0.000000000               0.000000000               0.000000000               0.000000000               0.000000000               0.000000000               0.000000000               0.000000000               0.000000000               0.000000000               0.000000000               0.000000000               0.000000000               0.000000000               0.000000000               0.000000000               0.000000000               0.000000000               0.000000000               0.000000000               0.000000000               0.000000000               0.000000000               0.000000000               0.000000000               0.000000000               0.000000000               0.000000000               0.000000000               0.000000000               0.000000000               0.000000000               0.000000000               0.000000000               0.000000000               0.000000000               0.000000000               0.000000000               0.000000000               0.000000000               0.000000000               0.000000000               0.000000000               0.000000000               0.000000000               0.000000000               0.000000000               0.000000000               0.000000000               0.000000000               0.000000000               0.000000000               0.000000000               0.000000000               0.000000000               0.000000000               0.000000000               0.000000000               0.000000000               0.000000000               0.000000000               0.000000000               0.000000000               0.000000000               0.000000000               0.000000000               0.000000000               0.000000000               0.000000000               0.000000000               0.000000000               0.000000000               0.000000000               0.000000000               0.000000000               0.000000000               0.000000000               0.000000000               0.000000000               0.000000000               0.000000000               0.000000000               0.000000000               0.000000000               0.000000000               0.000000000               0.000000000               0.000000000               0.000000000               0.000000000               0.000000000               0.000000000               0.000000000               0.000000000               0.000000000               0.000000000               0.000000000               0.000000000               0.000000000               0.000000000               0.000000000               0.000000000               0.000000000               0.000000000               0.000000000               0.000000000               0.000000000               0.000000000               0.000000000               0.000000000               0.000000000               0.000000000               0.000000000               0.000000000               0.000000000               0.000000000               0.000000000               0.000000000               0.000000000               0.000000000               0.000000000               0.000000000               0.000000000               0.000000000               0.000000000               0.000000000               0.000000000               0.000000000               0.000000000               0.000000000               0.000000000               0.000000000               0.000000000               0.000000000               0.000000000               0.000000000               0.000000000               0.000000000               0.000000000               0.000000000               0.000000000               0.000000000               0.000000000               0.000000000               0.000000000               0.000000000               0.000000000               0.000000000               0.000000000               0.000000000 </DataArray>
</PointData>
</Piece>
</UnstructuredGrid> </VTKFile>
